*Heading
** Job name: Converged_55 Model name: Mesh_study
** Generated by: Abaqus/CAE 2019
*Preprint, echo=NO, model=NO, history=NO, contact=NO
**
** PARTS
**
*Part, name=membrane
*End Part
**  
**
** ASSEMBLY
**
*Assembly, name=Assembly
**  
*Instance, name=membrane-1, part=membrane
*Node
      1,  -19.6572666,    9.5255537,           0.
      2,  -20.4386349,   8.75848293,           0.
      3,  -18.8758965,   10.2926245,           0.
      4,  -17.9379482,   10.6463127,           0.
      5,         -17.,          11.,           0.
      6,  -16.1000004,   11.3999996,           0.
      7,  -15.1999998,   11.8000002,           0.
      8,  -14.6141253,   12.8526154,           0.
      9,  -15.1999998,   13.9012547,           0.
     10,  -16.2800007,   15.0013866,           0.
     11,         -17.,    15.734808,           0.
     12,  -15.7442379,   16.9675903,           0.
     13,  -14.9070625,   17.7894459,           0.
     14,  -14.1258812,   16.9937038,           0.
     15,  -12.9541101,   15.8000898,           0.
     16,  -12.3595848,   14.7655659,           0.
     17,  -11.6157513,   13.8593397,           0.
     18,        -10.5,         12.5,           0.
     19,  -9.40713501,   11.3867636,           0.
     20,  -8.31426907,   10.2735262,           0.
     21,  -7.20713472,     9.236763,           0.
     22,   -6.0999999,   8.19999981,           0.
     23,  -5.29999971,          7.5,           0.
     24,         -4.5,   6.79999971,           0.
     25,  -3.69999981,    6.0999999,           0.
     26,  -2.89999986,    5.4000001,           0.
     27,  -2.07808757,   4.69715548,           0.
     28,   -1.6671313,   4.34573317,           0.
     29, -0.845218778,   3.64288878,           0.
     30, -0.0233063437,    2.9400444,           0.
     31,   1.32321179,    1.9826473,           0.
     32,   2.66972995,    1.0252502,           0.
     33,   4.01624823, 0.0678531677,           0.
     34,   4.91392708, -0.570411563,           0.
     35,   6.26044512,  -1.52780867,           0.
     36,   7.60696316,  -2.48520565,           0.
     37,   8.95348167,  -3.44260287,           0.
     38,   10.3000002,   -4.4000001,           0.
     39,   10.7166662,   -4.7833333,           0.
     40,   11.5500002,  -5.54999971,           0.
     41,   11.9666662,   -5.9333334,           0.
     42,   12.7999992,  -6.69999981,           0.
     43,   13.2166662,  -7.08333302,           0.
     44,   14.0499992,   -7.8499999,           0.
     45,   14.8833332,  -8.61666679,           0.
     46,   15.2999992,          -9.,           0.
     47,   15.8911057,  -9.87637329,           0.
     48,   16.4822121,  -10.7527456,           0.
     49,   17.0733166,  -11.6291189,           0.
     50,    17.664423,  -12.5054922,           0.
     51,   17.9322109,  -13.5027456,           0.
     52,   18.1999989,        -14.5,           0.
     53,   18.1999989,  -15.5999994,           0.
     54,    18.007906,  -16.5101395,           0.
     55,   17.3999996,         -17.,           0.
     56,   15.7813244,  -17.1953888,           0.
     57,   14.4891071,  -17.0976944,           0.
     58,   13.9210901,  -16.9834862,           0.
     59,    12.785058,  -16.7550697,           0.
     60,   12.2431002,  -16.5702648,           0.
     61,   11.1591854,  -16.2006569,           0.
     62,   10.0752707,   -15.831048,           0.
     63,    9.5333128,  -15.6462431,           0.
     64,    8.9913559,  -15.4614391,           0.
     65,   7.90744066,  -15.0918303,           0.
     66,   7.36548328,  -14.9070253,           0.
     67,   6.28156853,  -14.5374165,           0.
     68,   5.31209612,  -14.0564432,           0.
     69,   4.82736015,  -13.8159571,           0.
     70,   3.85788798,  -13.3349838,           0.
     71,   2.88841581,  -12.8540106,           0.
     72,   2.40367961,  -12.6135244,           0.
     73,   1.43420744,  -12.1325512,           0.
     74,  0.949471354,  -11.8920641,           0.
     75, -0.0200008526,  -11.4110909,           0.
     76,   -1.5999999,  -11.0999994,           0.
     77,  -2.13333321,  -10.8833332,           0.
     78,  -3.19999981,  -10.4499998,           0.
     79,  -3.73333335,  -10.2333326,           0.
     80,  -4.79999971,  -9.80000019,           0.
     81,  -5.84030485,    -9.283885,           0.
     82,  -7.40076208,  -8.50971317,           0.
     83,  -8.38083553,   -7.9642148,           0.
     84,  -9.85094738,  -7.14596701,           0.
     85,  -10.8310213,  -6.60046864,           0.
     86,  -11.8110952,  -6.05496979,           0.
     87,  -12.7911692,  -5.50947142,           0.
     88,  -14.2612801,  -4.69122362,           0.
     89,  -15.2413549,  -4.14572477,           0.
     90,  -16.2214279,   -3.6002264,           0.
     91,  -17.6915398,  -2.78197837,           0.
     92,  -18.6716137,  -2.23647976,           0.
     93,  -19.4797249,  -1.59748566,           0.
     94,  -19.8837795,  -1.27798855,           0.
     95,  -20.6918907, -0.638994277,           0.
     96,        -21.5,           0.,           0.
     97,   -21.833334,          0.5,           0.
     98,        -22.5,          1.5,           0.
     99,  -22.6000004,   2.79999995,           0.
    100,  -22.5105286,   3.35814238,           0.
    101,  -22.3315849,    4.4744277,           0.
    102,  -21.9966373,   5.51775026,           0.
    103,  -21.6616898,   6.56107283,           0.
    104,  -21.1724682,   7.44003677,           0.
    105,  -6.66928339,   7.42965698,           0.
    106,  -7.69859457,   7.66664457,           0.
    107,  -9.19995403,   7.42980003,           0.
    108,  -10.0921268,   7.52534294,           0.
    109,  -11.0805569,   7.66321039,           0.
    110,  -12.3101997,   7.76452684,           0.
    111,  -13.6869535,   7.53366089,           0.
    112,  -14.4011526,   7.72231245,           0.
    113,  -15.9950571,   7.84434938,           0.
    114,  -17.0136261,    7.5066514,           0.
    115,  -17.7208366,   7.54069901,           0.
    116,  -19.1615353,   7.55404568,           0.
    117,  -20.1506367,   7.26802874,           0.
    118,  -19.2259712,   8.32069492,           0.
    119,  -18.1522846,   8.57140732,           0.
    120,  -17.0734329,   8.61953926,           0.
    121,  -15.8805456,    8.6176281,           0.
    122,  -14.7121887,   8.79509544,           0.
    123,  -13.6977062,   9.17590904,           0.
    124,  -12.2323828,   9.18293667,           0.
    125,  -11.2063026,   8.35846806,           0.
    126,  -10.3174515,   8.53430367,           0.
    127,  -9.38576984,   8.45932579,           0.
    128,  -7.82185745,   8.37491322,           0.
    129,   -18.116827,   9.26350117,           0.
    130,  -17.2803688,   9.72889996,           0.
    131,  -16.0780602,   9.74045086,           0.
    132,  -14.8799105,   9.82051468,           0.
    133,  -13.9459028,   10.1112986,           0.
    134,  -12.3910761,   9.93927956,           0.
    135,  -11.4651861,   9.94216442,           0.
    136,  -10.3999672,   9.55116081,           0.
    137,  -9.24532127,   9.88271046,           0.
    138,   -15.805337,   11.0234442,           0.
    139,  -15.0501299,   10.9305754,           0.
    140,   -13.407094,   10.9235582,           0.
    141,  -12.2560558,   11.0414114,           0.
    142,  -11.2575636,   10.8866472,           0.
    143,    -10.24512,   10.7765722,           0.
    144,  -13.8247814,   12.4311981,           0.
    145,  -12.5419903,   11.9199743,           0.
    146,  -11.5766096,    11.890995,           0.
    147,  -13.4448786,   13.0970469,           0.
    148,  -12.3069687,    13.346693,           0.
    149,  -14.5618973,   14.5693569,           0.
    150,  -13.4911385,   14.4263401,           0.
    151,  -15.4672537,   15.6495361,           0.
    152,  -14.7051077,   15.0859365,           0.
    153,  -13.4024286,   15.3789358,           0.
    154,  -14.4770851,   16.6757221,           0.
    155,  -5.51942921,   6.39543724,           0.
    156,  -6.89488792,   6.33461189,           0.
    157,  -7.57290411,   6.25137186,           0.
    158,  -8.70892811,   6.48392916,           0.
    159,  -10.2064877,   6.53578234,           0.
    160,  -11.2099342,   6.39137602,           0.
    161,  -12.3267584,   6.34778643,           0.
    162,  -13.5440798,   6.38082743,           0.
    163,   -14.234293,   6.76768446,           0.
    164,  -16.1266613,   6.49095583,           0.
    165,  -16.8443356,   6.22225904,           0.
    166,  -17.9819832,   6.45522404,           0.
    167,  -19.1474056,   6.72166348,           0.
    168,  -20.0620422,   6.59613276,           0.
    169,   -4.3785181,   5.32988501,           0.
    170,  -5.82393789,   5.33221531,           0.
    171,  -6.48563528,   5.34905005,           0.
    172,   -7.7974062,   5.12801266,           0.
    173,  -9.13258553,   5.52037001,           0.
    174,  -10.1237621,   5.21564722,           0.
    175,  -10.9838114,   5.33786535,           0.
    176,  -12.5989761,   5.29544067,           0.
    177,  -13.7065983,   5.67492867,           0.
    178,  -14.8067808,   5.67231894,           0.
    179,  -15.5639553,   5.27940655,           0.
    180,  -17.1342278,   5.18182373,           0.
    181,  -18.0949421,   5.35012388,           0.
    182,  -19.0981159,   5.82792854,           0.
    183,  -20.3561878,   5.60045338,           0.
    184,  -21.0229759,   5.19980383,           0.
    185,  -2.43596148,   4.29329395,           0.
    186,  -3.22279453,   4.22425175,           0.
    187,    -4.650383,   4.22926855,           0.
    188,  -5.77193689,   4.27480173,           0.
    189,  -6.63171625,   4.22395945,           0.
    190,  -8.04961777,   3.99490976,           0.
    191,   -9.1062727,   4.10961723,           0.
    192,  -9.86845684,   4.43226957,           0.
    193,  -11.0735531,   4.07969141,           0.
    194,  -12.4662981,   4.11914825,           0.
    195,  -13.9286509,    4.5115881,           0.
    196,  -14.4456406,   4.34689856,           0.
    197,  -15.3650236,   4.13407326,           0.
    198,  -16.7848721,   4.20832539,           0.
    199,  -17.8071842,   4.29086637,           0.
    200,  -18.9231911,   4.46325254,           0.
    201,   -20.100359,   4.49693918,           0.
    202,   -21.239624,   4.19606066,           0.
    203,  -1.19460487,   3.24736762,           0.
    204,  -2.29130268,   2.79600525,           0.
    205,  -3.45772958,    2.9678328,           0.
    206,  -4.44141436,   2.95250964,           0.
    207,   -5.7599721,   3.40480852,           0.
    208,  -6.66200733,   3.18777728,           0.
    209,  -7.80010271,   3.01875448,           0.
    210,   -9.1143713,   3.28394604,           0.
    211,  -10.0405445,   2.98789763,           0.
    212,   -10.921896,   2.94647312,           0.
    213,  -12.2538843,   3.02308488,           0.
    214,   -13.432353,   3.20411062,           0.
    215,  -14.9999952,   2.99684525,           0.
    216,  -15.8172121,   3.47474813,           0.
    217,  -16.8135834,    3.3663156,           0.
    218,  -17.8664837,   3.29632401,           0.
    219,  -19.0114594,    3.3535769,           0.
    220,  -20.1919785,   3.49635363,           0.
    221,  -21.3948727,   3.19724727,           0.
    222, -0.190603659,   1.73411334,           0.
    223,  -2.21917462,   2.05489659,           0.
    224,  -3.74505281,   1.83722103,           0.
    225,  -4.46413088,   1.75700462,           0.
    226,  -5.52523994,   1.85372341,           0.
    227,  -6.54885197,   1.88028312,           0.
    228,  -7.58468199,   2.30799532,           0.
    229,  -8.94193363,   2.10198927,           0.
    230,  -9.89994049,   1.91798711,           0.
    231,  -11.3420572,      1.83655,           0.
    232,  -12.2603607,    2.1825614,           0.
    233,  -13.6950264,   1.86962736,           0.
    234,  -15.0333338,   1.71006179,           0.
    235,  -15.9850569,   2.13134432,           0.
    236,   -16.932745,   2.01322198,           0.
    237,  -18.1590862,   2.07279062,           0.
    238,   -19.723875,   2.02360415,           0.
    239,  -20.5029526,   2.16105866,           0.
    240,  -21.4518108,   2.21250153,           0.
    241,   1.19486892,  0.896100879,           0.
    242, 0.0549244396,    1.0318495,           0.
    243,  -1.11784685,  0.859704673,           0.
    244,   -2.4212935,  0.840251148,           0.
    245,  -3.54976916,   1.01550531,           0.
    246,  -4.18368769,  0.845220923,           0.
    247,  -5.54488945,   0.61543715,           0.
    248,  -6.89513731,  0.875505865,           0.
    249,  -7.84408092,  0.940583169,           0.
    250,  -8.89413357,   0.84928149,           0.
    251,  -10.3448381,  0.921170175,           0.
    252,  -11.2800617,  0.711252034,           0.
    253,  -12.5680389,   1.28213251,           0.
    254,  -13.2697563,   0.83761853,           0.
    255,  -14.6942692,  0.694013536,           0.
    256,  -15.7589254,  0.967429757,           0.
    257,  -17.3497562,  0.705873847,           0.
    258,  -18.0221519,  0.849225283,           0.
    259,  -19.5052681,   1.04830718,           0.
    260,  -20.4890938,   1.32217169,           0.
    261,  -21.4919281,  0.760312676,           0.
    262,   3.20759964, -0.0866049901,           0.
    263,   1.93906868,  -0.49106127,           0.
    264,   1.25230193, -0.407219887,           0.
    265,  0.239850923, -0.212599188,           0.
    266,  -1.42187846, -0.713213682,           0.
    267,  -2.40918899, -0.386082113,           0.
    268,  -3.61333251, -0.151417091,           0.
    269,  -4.63476801, -0.444482177,           0.
    270,  -5.22746325, 0.0689495802,           0.
    271,  -6.55322075, -0.124430962,           0.
    272,  -7.52220821, -0.112075306,           0.
    273,   -8.9946928,  0.141795427,           0.
    274,  -10.4743938, -0.0452727079,           0.
    275,  -11.3260679, -0.274492741,           0.
    276,  -12.3983078, -0.120498605,           0.
    277,  -13.4262877, -0.0104050823,           0.
    278,  -14.4670763, -0.132087648,           0.
    279,  -16.2487049, -0.145995557,           0.
    280,   -16.842186,  -0.54546243,           0.
    281,  -18.4534264, -0.0359853581,           0.
    282,  -19.2747211,  0.287071049,           0.
    283,  -20.2305927, -0.231194764,           0.
    284,   4.35791063,  -1.33553839,           0.
    285,   3.25685763,  -1.31534994,           0.
    286,    1.8159976,  -1.58736038,           0.
    287,  0.807761133,  -1.42539859,           0.
    288,  0.291374594,  -1.27170193,           0.
    289,  -1.19902682,   -1.3251785,           0.
    290,  -2.26750851,  -1.34843552,           0.
    291,  -3.25043774,  -1.55910385,           0.
    292,  -4.64844036,  -1.48709869,           0.
    293,  -5.66063547,   -1.4222126,           0.
    294,  -6.75644922,   -1.4142971,           0.
    295,   -8.6318922,  -1.24612176,           0.
    296,  -10.2858849,  -1.13430047,           0.
    297,  -11.4150562,  -1.38692236,           0.
    298,  -12.4914141,  -1.35130596,           0.
    299,  -13.2745886,  -1.08501661,           0.
    300,  -14.8127203,  -1.29020262,           0.
    301,  -15.8464775,   -1.5117178,           0.
    302,  -16.9287357,  -1.55840635,           0.
    303,  -18.0424767,  -1.48081386,           0.
    304,   6.33404112,  -2.24792266,           0.
    305,   5.57009172,  -2.24250531,           0.
    306,   4.50937033,  -2.63314366,           0.
    307,   3.52564502,  -2.49074125,           0.
    308,   2.41500783,  -2.51477933,           0.
    309,     1.007182,   -2.3579092,           0.
    310,  0.238672316,  -2.68940973,           0.
    311,  -0.79757005,  -2.19628596,           0.
    312,  -2.34469223,  -2.24362063,           0.
    313,  -3.32335424,  -2.41656232,           0.
    314,  -4.35595226,   -2.3071022,           0.
    315,  -5.40312052,  -2.41072893,           0.
    316,  -6.26821899,  -2.30070305,           0.
    317,  -7.70545053,  -2.49624419,           0.
    318,  -8.84829044,  -2.39710927,           0.
    319,  -10.1247339,  -2.31719756,           0.
    320,  -12.7161846,  -2.76159644,           0.
    321,  -13.5045538,  -2.65007448,           0.
    322,  -14.6228781,  -2.41578531,           0.
    323,  -15.7637053,  -2.63107586,           0.
    324,  -16.9560509,   -2.6369319,           0.
    325,    7.6248889,  -3.97157955,           0.
    326,   6.65243387,  -3.96165013,           0.
    327,   5.58288908,  -3.85449338,           0.
    328,   4.33145285,  -3.91385412,           0.
    329,   3.65685153,   -3.9187727,           0.
    330,   2.33642101,  -3.67979765,           0.
    331,   1.22971332,  -3.46455884,           0.
    332, 0.0590363219,  -3.78797579,           0.
    333,  -1.15057492,  -3.68217063,           0.
    334,  -2.29856706,  -3.58480716,           0.
    335,  -3.54494929,  -3.56404543,           0.
    336,  -4.58429432,  -3.52854252,           0.
    337,  -5.53833246,    -3.595011,           0.
    338,  -6.74889231,  -3.73519373,           0.
    339,  -7.65309811,  -3.68918109,           0.
    340,  -9.78320217,  -3.93208194,           0.
    341,  -11.1331739,  -3.27146983,           0.
    342,  -12.1199179,   -3.6478951,           0.
    343,  -13.4165535,  -3.45282388,           0.
    344,  -14.8796043,  -3.56427908,           0.
    345,    8.8901844,  -4.76096487,           0.
    346,   8.13347721,  -4.98980379,           0.
    347,   6.70682478,  -4.99773693,           0.
    348,   5.78273058,  -4.64208603,           0.
    349,   4.88235664,  -4.69138193,           0.
    350,   3.23256779,  -4.94409657,           0.
    351,   1.98955846,  -4.91510725,           0.
    352,   1.28081191,  -4.90561962,           0.
    353,  0.430849463,  -4.89895535,           0.
    354, -0.939661443,  -4.68897915,           0.
    355,  -2.24848962,  -5.00842094,           0.
    356,  -3.22398162,  -4.55604362,           0.
    357,  -4.67861557,  -4.76819611,           0.
    358,  -5.55533504,  -4.65569735,           0.
    359,   -7.1470623,   -4.8619175,           0.
    360,  -7.94984388,  -4.85461807,           0.
    361,  -8.69993114,  -4.74335003,           0.
    362,  -9.87336922,  -4.98392534,           0.
    363,  -10.8420334,  -4.39350748,           0.
    364,  -12.4023914,  -4.59841537,           0.
    365,    10.176424,  -5.67822361,           0.
    366,   8.82876015,  -6.05354548,           0.
    367,   7.74873114,  -6.19920158,           0.
    368,   6.76438379,  -5.95996904,           0.
    369,   5.86495876,  -6.05265331,           0.
    370,   4.36294889,   -6.1951251,           0.
    371,   3.25655675,  -5.96080542,           0.
    372,   2.18923068,  -6.12179136,           0.
    373,   1.04421699,  -5.84739637,           0.
    374, 0.0609591641,  -6.02771521,           0.
    375, -0.829132676,  -5.57083654,           0.
    376,  -2.01784778,  -5.99385309,           0.
    377,  -3.31554008,  -5.74709082,           0.
    378,  -4.57319689,  -5.79274368,           0.
    379,  -5.72199249,  -5.81946802,           0.
    380,  -6.46513939,  -6.02126932,           0.
    381,  -7.61013889,  -6.28871918,           0.
    382,  -8.90338516,  -5.89150763,           0.
    383,  -10.0373602,  -5.69602394,           0.
    384,  -11.5560284,  -5.47591162,           0.
    385,    12.398613,  -7.10247421,           0.
    386,   11.6632442,  -6.97047377,           0.
    387,   10.0906935,  -6.89707899,           0.
    388,   9.05476761,  -6.72307396,           0.
    389,   7.86482716,  -7.36103535,           0.
    390,   6.87506819,  -7.16291142,           0.
    391,   5.44032431,  -7.03388453,           0.
    392,   4.69941759,  -7.50037479,           0.
    393,   3.46613574,   -7.0879693,           0.
    394,    2.3227756,  -7.15032578,           0.
    395,   1.21288538,  -6.89067268,           0.
    396,  0.183584243,  -7.09886408,           0.
    397,  -2.17288637,   -7.1559453,           0.
    398,  -3.47773433,  -6.58886242,           0.
    399,  -4.30158758,  -6.81598997,           0.
    400,  -5.66308165,  -6.99099064,           0.
    401,  -6.81466389,  -7.05750275,           0.
    402,  -7.94924307,  -7.11563206,           0.
    403,  -9.10846806,  -7.00056219,           0.
    404,   13.2163887,  -7.92337275,           0.
    405,   12.2503576,   -8.0412159,           0.
    406,   11.0298452,  -8.21652889,           0.
    407,   10.1265478,  -7.71524954,           0.
    408,   9.04773045,   -7.9168334,           0.
    409,   8.16353893,    -7.864326,           0.
    410,   6.95401096,  -8.21348476,           0.
    411,   5.70858335,  -7.97401619,           0.
    412,   4.80940676,    -8.017766,           0.
    413,   3.33506107,  -8.26742172,           0.
    414,   2.51201916,  -8.00504017,           0.
    415,   1.44201207,  -8.00068092,           0.
    416,  0.318887383,  -8.17515373,           0.
    417,  -1.05187201,   -8.1073637,           0.
    418,   -1.9017235,  -8.00544262,           0.
    419,  -2.99514341,  -8.05487347,           0.
    420,  -4.24939728,  -7.86738205,           0.
    421,   -5.9892354,  -8.00472164,           0.
    422,  -7.19032478,   -8.0377655,           0.
    423,     14.46632,  -9.05991554,           0.
    424,   13.7090626,  -9.06936455,           0.
    425,   12.3456373,  -9.38217831,           0.
    426,   11.4188347,  -9.61566544,           0.
    427,   10.3648224,  -9.52116203,           0.
    428,   9.24316311,  -9.28403091,           0.
    429,   7.95862055,  -9.88709354,           0.
    430,   7.04214859,  -9.33545494,           0.
    431,    5.9873805,  -9.36468124,           0.
    432,   4.75489283,  -9.06244659,           0.
    433,   3.34504247,  -9.03546047,           0.
    434,   2.42558527,  -9.28171158,           0.
    435,   1.41142547,  -9.29514599,           0.
    436,   0.32529974,  -9.20866871,           0.
    437,  -1.23442483,  -9.45802021,           0.
    438,  -2.20522046,  -9.12095451,           0.
    439,  -3.32525611,  -9.36365891,           0.
    440,  -4.53693295,  -9.20866776,           0.
    441,   14.5927744,  -10.4705563,           0.
    442,   13.5259256,  -10.0749912,           0.
    443,    12.041646,  -10.3145103,           0.
    444,   11.5655413,  -10.5028105,           0.
    445,   10.4156284,  -10.6199226,           0.
    446,   9.19303608,  -10.5868931,           0.
    447,   8.14951515,  -10.4178019,           0.
    448,   7.26215553,  -10.7364998,           0.
    449,   6.00875044,  -10.6541185,           0.
    450,   4.48317528,  -9.98817825,           0.
    451,   3.45488048,  -10.2334585,           0.
    452,   2.39546132,  -10.3277559,           0.
    453,   1.18278515,   -10.164156,           0.
    454,   0.13302663,  -10.3818541,           0.
    455,  -1.45345271,  -10.4287119,           0.
    456,  -2.53920174,  -10.1965141,           0.
    457,   15.8085966,  -11.5020237,           0.
    458,   14.5600729,  -11.9240074,           0.
    459,   13.4094086,   -10.994792,           0.
    460,   12.5167847,  -11.5768299,           0.
    461,   11.3791971,  -11.2146063,           0.
    462,   10.0548544,  -11.8458643,           0.
    463,   9.43465328,  -11.7361336,           0.
    464,     7.934093,  -11.9389477,           0.
    465,   6.57161379,  -11.7300673,           0.
    466,   5.51935339,   -11.622961,           0.
    467,   4.59610033,  -11.5893459,           0.
    468,   3.57039952,  -11.3692436,           0.
    469,   2.38847971,  -11.4452639,           0.
    470,   1.19991708,  -11.3821144,           0.
    471,   17.1528225,  -12.2235489,           0.
    472,   15.8732147,  -12.1639948,           0.
    473,   14.7369633,  -12.6611328,           0.
    474,   13.7743187,  -12.6461287,           0.
    475,   12.6152821,  -12.5819187,           0.
    476,     11.75809,  -12.2114048,           0.
    477,   10.5631981,  -12.6493759,           0.
    478,   9.06872082,   -12.792984,           0.
    479,   7.81125069,  -12.4898777,           0.
    480,   6.52580166,  -12.7025728,           0.
    481,   5.61886454,  -12.6671791,           0.
    482,   4.93795156,  -12.6953812,           0.
    483,    3.6608336,   -12.582222,           0.
    484,   17.1089592,  -13.9890957,           0.
    485,   16.1449223,  -13.9069262,           0.
    486,   14.6239796,  -14.0571117,           0.
    487,   13.4589663,  -13.5739145,           0.
    488,   12.4454088,  -13.5666008,           0.
    489,   11.3262386,  -13.8512144,           0.
    490,   10.3069229,  -13.5867205,           0.
    491,   9.13886547,  -13.5625401,           0.
    492,   8.23504543,  -13.7021046,           0.
    493,   7.08892965,  -13.7530241,           0.
    494,    5.9967823,  -13.8839569,           0.
    495,   17.1622276,  -14.8543167,           0.
    496,   16.2208538,  -15.1398392,           0.
    497,    15.292572,  -15.1413279,           0.
    498,   14.1010523,  -15.2998142,           0.
    499,   13.2120209,  -15.2713385,           0.
    500,   11.5158663,  -15.1521673,           0.
    501,    10.452755,  -14.7820816,           0.
    502,   9.17732334,  -14.8855782,           0.
    503,   17.0285149,  -15.5062456,           0.
    504,   15.9955168,  -16.1116982,           0.
    505,   15.0082455,  -16.1558037,           0.
    506,   13.9915981,  -16.0569782,           0.
    507,   12.8948174,  -16.2460976,           0.
    508,  -20.0479507,   9.14201832,           0.
    509,  -19.2665806,   9.90908909,           0.
    510,  -18.4069233,   10.4694691,           0.
    511,  -17.4689751,   10.8231564,           0.
    512,  -16.5499992,   11.1999998,           0.
    513,  -15.6499996,   11.5999994,           0.
    514,  -14.9070625,   12.3263073,           0.
    515,  -14.9070625,    13.376935,           0.
    516,  -15.5599995,   14.2679653,           0.
    517,  -15.9200001,    14.634676,           0.
    518,  -16.6399994,   15.3680973,           0.
    519,  -16.5814133,   16.1457367,           0.
    520,  -16.1628246,   16.5566635,           0.
    521,  -15.3256502,   17.3785191,           0.
    522,  -14.5164719,   17.3915749,           0.
    523,  -13.7352915,   16.5958328,           0.
    524,  -13.3447008,   16.1979618,           0.
    525,   -12.656847,   15.2828283,           0.
    526,   -11.987668,   14.3124523,           0.
    527,  -11.2438335,   13.4062262,           0.
    528,  -10.8719168,   12.9531136,           0.
    529,  -10.1357117,   12.1289215,           0.
    530,  -9.77142334,   11.7578421,           0.
    531,  -9.04284668,   11.0156841,           0.
    532,   -8.6785574,   10.6446047,           0.
    533,  -7.94522429,   9.92793846,           0.
    534,   -7.5761795,   9.58235073,           0.
    535,  -6.83808947,   8.89117527,           0.
    536,  -6.46904469,   8.54558754,           0.
    537,  -5.69999981,    7.8499999,           0.
    538,   -4.9000001,   7.14999962,           0.
    539,   -4.0999999,   6.44999981,           0.
    540,  -3.29999995,         5.75,           0.
    541,  -2.48904371,   5.04857779,           0.
    542,  -1.25617504,   3.99431109,           0.
    543, -0.434262574,   3.29146671,           0.
    544,  0.425533056,   2.62091208,           0.
    545,  0.874372423,   2.30177975,           0.
    546,   1.77205122,   1.66351497,           0.
    547,   2.22089052,   1.34438264,           0.
    548,   3.11856937,  0.706117868,           0.
    549,    3.5674088,   0.38698554,           0.
    550,   4.46508741, -0.251279205,           0.
    551,   5.36276627, -0.889543891,           0.
    552,   5.81160593,  -1.20867634,           0.
    553,   6.70928478,  -1.84694099,           0.
    554,   7.15812397,  -2.16607332,           0.
    555,   8.05580235,  -2.80433798,           0.
    556,   8.50464249,  -3.12347054,           0.
    557,   9.40232086,   -3.7617352,           0.
    558,   9.85116005,  -4.08086777,           0.
    559,   11.1333332,  -5.16666651,           0.
    560,   12.3833332,   -6.3166666,           0.
    561,   13.6333332,   -7.4666667,           0.
    562,   14.4666662,  -8.23333359,           0.
    563,   15.5955524,  -9.43818665,           0.
    564,   16.1866589,   -10.314559,           0.
    565,   16.7777634,  -11.1909323,           0.
    566,   17.3688698,  -12.0673056,           0.
    567,    17.798317,  -13.0041189,           0.
    568,   18.0661049,  -14.0013723,           0.
    569,   18.1999989,  -15.0499992,           0.
    570,   18.1039524,   -16.055069,           0.
    571,   16.8604412,  -17.0651283,           0.
    572,   16.3208828,  -17.1302586,           0.
    573,   15.1352158,  -17.1465416,           0.
    574,   13.3530741,   -16.869278,           0.
    575,   11.7011433,  -16.3854599,           0.
    576,   10.6172285,   -16.015852,           0.
    577,   8.44939804,  -15.2766342,           0.
    578,   6.82352591,  -14.7222214,           0.
    579,   5.79683256,  -14.2969303,           0.
    580,   4.34262419,    -13.57547,           0.
    581,   3.37315178,  -13.0944967,           0.
    582,   1.91894352,  -12.3730373,           0.
    583,   0.46473524,  -11.6515779,           0.
    584, -0.546667218,   -11.307394,           0.
    585,  -1.07333362,  -11.2036972,           0.
    586,  -2.66666651,   -10.666666,           0.
    587,  -4.26666641,  -10.0166664,           0.
    588,  -5.32015228,   -9.5419426,           0.
    589,  -6.36045694,  -9.02582836,           0.
    590,  -6.88060951,  -8.76777077,           0.
    591,  -7.89079905,  -8.23696423,           0.
    592,  -8.87087345,  -7.69146538,           0.
    593,  -9.36091042,  -7.41871643,           0.
    594,  -10.3409843,  -6.87321758,           0.
    595,  -11.3210583,  -6.32771921,           0.
    596,  -12.3011322,  -5.78222036,           0.
    597,  -13.2812061,  -5.23672199,           0.
    598,  -13.7712431,  -4.96397257,           0.
    599,   -14.751317,   -4.4184742,           0.
    600,  -15.7313919,  -3.87297559,           0.
    601,  -16.7114658,  -3.32747698,           0.
    602,  -17.2015018,  -3.05472779,           0.
    603,  -18.1815777,  -2.50922918,           0.
    604,  -19.0756683,  -1.91698277,           0.
    605,  -20.2878342, -0.958491385,           0.
    606,  -21.0959454, -0.319497138,           0.
    607,  -22.1666679,           1.,           0.
    608,  -22.5499992,    2.1500001,           0.
    609,  -22.4210567,   3.91628504,           0.
    610,  -22.1641121,   4.99608898,           0.
    611,  -21.8291645,   6.03941154,           0.
    612,  -21.4170799,   7.00055456,           0.
    613,  -20.9278564,   7.87951899,           0.
    614,  -20.6832466,    8.3190012,           0.
    615,  -3.24277139,   5.00309086,           0.
    616,  -2.03318548,  -10.3558741,           0.
    617,   17.7410603,  -15.9145107,           0.
    618,   17.6161709,  -15.4829321,           0.
    619,   5.53184748,  -13.6564074,           0.
    620,  -16.6986256,   10.5831089,           0.
    621,  -16.2444878,    10.795949,           0.
    622,  -15.3947344,   11.2762976,           0.
    623,  -17.6132317,   10.1745653,           0.
    624,  -18.4748497,   9.72998047,           0.
    625,  -17.1586819,   10.3782749,           0.
    626,  -21.2294769,    6.3153429,           0.
    627,  -20.7888718,   7.17486191,           0.
    628,   -21.024683,   6.75419903,           0.
    629,  -20.2565289,   7.98239994,           0.
    630,   -8.5089016,   9.46371174,           0.
    631,  -6.38100672,   7.81656599,           0.
    632,  -7.14355135,   8.48319054,           0.
    633,  -7.97541428,   9.12329197,           0.
    634,  -6.76163912,   8.15271378,           0.
    635,  -7.54262543,   8.80493355,           0.
    636,    -15.56635,    14.948266,           0.
    637,  -15.8882513,   15.3461637,           0.
    638,  -21.1082706,  0.448011756,           0.
    639,  -19.5267429, -0.948813975,           0.
    640,  -19.8889313, -0.605201781,           0.
    641,   -19.145895,  -1.26825571,           0.
    642,  -18.7506332,  -1.57073534,           0.
    643,   17.4961948,  -13.5338306,           0.
    644,   17.3862686,  -13.0604153,           0.
    645,    17.588583,  -14.0096941,           0.
    646,  -10.6644287,   11.5844784,           0.
    647,  -9.33706856,   10.7323818,           0.
    648,  -10.0994415,    11.312233,           0.
    649,  -9.00529289,   10.4069242,           0.
    650,   15.1158171,  -9.93652344,           0.
    651,   16.4506817,  -11.5394049,           0.
    652,   16.1288128,  -11.1189861,           0.
    653,   16.7869949,  -12.0455122,           0.
    654,   15.4507952,  -10.3396912,           0.
    655,   15.7940454,  -10.7283163,           0.
    656,  -5.59841537,   7.12252188,           0.
    657,  -5.20611477,   6.77119541,           0.
    658,  -4.42157936,   6.06533623,           0.
    659,   -3.6406436,   5.36347866,           0.
    660,  -4.81357431,   6.41756535,           0.
    661,  -4.03325939,   5.71649027,           0.
    662,  -5.99015808,    7.4721117,           0.
    663, -0.426452547,  -10.8212328,           0.
    664, -0.931039512,  -10.6740675,           0.
    665,  -1.60638368,   3.59933257,           0.
    666,  -2.84478903,   4.64267302,           0.
    667, -0.781778216,   2.87960148,           0.
    668,   6.47196579,  -14.0803947,           0.
    669,   2.15786672,  -11.9038877,           0.
    670,   4.61830664,  -13.1119184,           0.
    671,   2.64858246,  -12.1365566,           0.
    672,   5.07347679,  -13.3994703,           0.
    673,   3.15013981,  -12.3597059,           0.
    674,  0.695190787,  -10.9938421,           0.
    675,  -2.02122617,   3.94561791,           0.
    676,    17.251421,    -15.78197,           0.
    677,   16.6566353,  -16.5378933,           0.
    678,   16.1545658,  -16.6150665,           0.
    679,  -19.9667664,   8.36202621,           0.
    680,  -19.2612839,   9.09616756,           0.
    681,  -19.6303596,   8.73114109,           0.
    682,  -21.7794495,   4.32608604,           0.
    683,  -21.3845539,   5.84633732,           0.
    684,   17.6545296,  -14.4823008,           0.
    685,   17.6680756,  -14.9697704,           0.
    686, -0.359068483,   2.50569797,           0.
    687,   8.26889992,  -3.65585947,           0.
    688,   1.03633165,   1.58749938,           0.
    689,   7.16141033,   -3.1644485,           0.
    690,   1.48318577,   1.27800751,           0.
    691,   5.92416048,  -1.89532363,           0.
    692,   5.50358772,   -1.5656296,           0.
    693,   1.91908276,  0.955582261,           0.
    694,   3.68955445, -0.377557397,           0.
    695,   2.34742475,  0.615499318,           0.
    696,   2.77320766,  0.258402646,           0.
    697,  0.575126886,    1.8887403,           0.
    698,   5.07206249,  -1.25119257,           0.
    699,   9.15190697,  -4.25652361,           0.
    700,   4.16987705, -0.659574747,           0.
    701,   8.71662331,  -3.94970775,           0.
    702,   9.58758545,  -4.57135677,           0.
    703,  -13.7778425,   15.8231888,           0.
    704,  -7.67889071,  -7.79297876,           0.
    705,  -18.3429317,  -1.85553026,           0.
    706,  -8.64005375,   -7.2782011,           0.
    707,   -10.012044,  -6.41750526,           0.
    708,  -15.9743881,   -3.1193676,           0.
    709,  -12.5853281,   -5.0603652,           0.
    710,  -13.9951782,  -4.29033566,           0.
    711,  -8.16233635,  -7.54288483,           0.
    712,  -17.9005699,  -2.12463903,           0.
    713,  -13.5405121,  -4.56186295,           0.
    714,  -12.0857744,  -5.27908468,           0.
    715,  -9.56726551,  -6.71278048,           0.
    716,   -10.460742,  -6.09196424,           0.
    717,  -21.9529457,   3.27323103,           0.
    718,  -22.0041485,   2.74542284,           0.
    719,  -21.8762512,    3.8033936,           0.
    720,    10.018096,  -4.88776827,           0.
    721,   10.8601122,   -5.5610075,           0.
    722,    14.076519,  -8.66326237,           0.
    723,   11.2724581,   -5.9064846,           0.
    724,   10.4402037,  -5.21829748,           0.
    725,   11.6712732,  -6.27102852,           0.
    726,   12.7749004,  -7.53979635,           0.
    727,   11.3297682,  -15.6861811,           0.
    728,   10.2607012,  -15.3035564,           0.
    729,   8.07427597,  -14.4549665,           0.
    730,   10.7984295,     -15.4958,           0.
    731,    8.6274786,   -14.658473,           0.
    732,   11.8568287,  -15.8766775,           0.
    733,   7.52352381,  -14.3407402,           0.
    734,  -3.03614116,  -10.0047312,           0.
    735,  -4.03620863,  -9.49950123,           0.
    736,  -3.53936768,  -9.77691269,           0.
    737,   13.4176006,  -16.3947124,           0.
    738,   14.5010557,  -16.6096725,           0.
    739,   -6.1648345,  -8.51687431,           0.
    740,  -6.68436432,  -8.27953434,           0.
    741,  -5.63046503,  -8.74764538,           0.
    742,   12.3802423,  -16.0670815,           0.
    743,  -11.9851265,   13.6069403,           0.
    744,  -11.3693419,   12.6547413,           0.
    745,  -11.6502762,    13.158123,           0.
    746,  -12.3650713,   14.0299959,           0.
    747,   -15.770895,   16.1156425,           0.
    748,  -15.2462997,   16.4706001,           0.
    749,  -12.6958961,   14.4902315,           0.
    750,  -14.8134422,   14.1891098,           0.
    751,   -14.250082,   13.7265768,           0.
    752,  -21.7530785,   1.19244742,           0.
    753,  -14.6308765,   11.9724665,           0.
    754,  -14.2613077,   12.2762194,           0.
    755,  -5.07930136,  -8.97224998,           0.
    756,   17.2635078,  -12.6073246,           0.
    757,  -14.1195688,   16.2674484,           0.
    758,  -13.0618114,   14.9144421,           0.
    759,    15.075943,  -16.6581573,           0.
    760,   15.6373749,  -16.6613598,           0.
    761,  -21.9965115,     2.192379,           0.
    762,  -20.4146519,   6.89656639,           0.
    763,  -19.5518494,   7.96576738,           0.
    764,  -15.2065306,   15.2203751,           0.
    765,   17.1214066,  -15.2351246,           0.
    766,  -18.5035744,   8.98566532,           0.
    767, -0.745861828,   2.01306868,           0.
    768,  -15.9297295,   10.3897266,           0.
    769,  -20.8302689,   6.11811304,           0.
    770,   9.91964626,  -14.5773373,           0.
    771,  -21.3246098,   3.69750309,           0.
    772,  -11.9219532,  -4.76636553,           0.
    773,   8.08359623,  -4.16143227,           0.
    774,   -10.927556,  -5.64820194,           0.
    775,   4.16011858,  -12.8182297,           0.
    776,  -21.1371517,    4.7016139,           0.
    777,  -4.88161802,   -8.3995657,           0.
    778,  -9.25088882,  -6.28681183,           0.
    779,  -13.7839003,   15.0252256,           0.
    780,   12.5428209,  -15.5582714,           0.
    781,  -2.80310416,   3.87559724,           0.
    782,  -1.54184198,   2.86410189,           0.
    783,  -18.0566807,   9.96049976,           0.
    784,  -20.5294914,   7.58484602,           0.
    785,   17.1517181,  -14.4280825,           0.
    786,  -3.99449325,   4.98556232,           0.
    787,  -7.42676449,   8.07303143,           0.
    788,  -8.72709465,   8.86273861,           0.
    789,  -7.04707575,   7.75698996,           0.
    790, -0.321283519,  -10.3611374,           0.
    791,  -14.5315504,    16.003231,           0.
    792,  -6.49950743,  -7.78162384,           0.
    793,  -14.9940958,   11.5846157,           0.
    794,  -5.90357161,    6.7480917,           0.
    795,  -15.2244234,   14.5667934,           0.
    796,  -19.1598244,  -0.63383162,           0.
    797,  -18.4371567,  -1.21962917,           0.
    798,  -9.87582779,   10.7406511,           0.
    799,  -10.7347155,   10.8730049,           0.
    800,  -16.8405228,   9.94526005,           0.
    801,   -14.077939,   14.3689728,           0.
    802,   15.0595369,  -10.8400192,           0.
    803,  -5.13754272,   6.03807068,           0.
    804,  -6.28711605,   7.09351969,           0.
    805,   6.18246937,  -13.4774294,           0.
    806,  -2.00222182,  -9.85599422,           0.
    807,   6.61721563,  -13.6459389,           0.
    808,   2.87466264,  -11.6640749,           0.
    809,   5.75484514,  -13.2690439,           0.
    810,   6.98665237,  -14.2319345,           0.
    811,  -18.8714008,   9.43635654,           0.
    812,   16.1419449,  -11.8316021,           0.
    813,  0.759643614,    1.1908325,           0.
    814,   1.99924743,  0.234493107,           0.
    815,   7.76671648,  -3.39451671,           0.
    816,   5.18272924,   -1.9204905,           0.
    817,   3.41351938, -0.845490754,           0.
    818,   -13.070363,  -4.81887007,           0.
    819,  -14.4373817,  -3.99269462,           0.
    820,  -16.4705582,  -2.88260126,           0.
    821,   -13.297781,   -4.1446619,           0.
    822,  -15.4590607,  -3.34630322,           0.
    823,  -17.6209927,  -1.73272061,           0.
    824,   12.0389557,  -6.66943121,           0.
    825,   11.3723898,  -6.58135128,           0.
    826,   10.9891424,  -14.9657049,           0.
    827,   16.9699707,  -13.0902987,           0.
    828,  -2.37255502,   3.53724527,           0.
    829,   1.60285461,  0.580883682,           0.
    830,   13.9555244,  -16.5181465,           0.
    831,   2.79260015, -0.642050207,           0.
    832,  -12.0460215,   12.9852076,           0.
    833,  -12.8376789,   13.6846275,           0.
    834,  -14.8990917,   16.9966888,           0.
    835,  -15.0101986,   15.8719597,           0.
    836,  -14.7383471,   16.3913021,           0.
    837,  -2.86704063,  -9.54819965,           0.
    838,   16.4088116,  -12.2143126,           0.
    839,  -2.41998386,  -9.69964886,           0.
    840,  -14.0396938,   13.0380392,           0.
    841,  -14.0656862,    11.839304,           0.
    842,  -1.13959908,   2.50111556,           0.
    843,  -4.75737715,   5.67880487,           0.
    844,  -14.2438936,   15.4739046,           0.
    845,  -15.4744062,   10.6391659,           0.
    846,  -18.8732681,   8.66569519,           0.
    847,   14.0705528,  -9.43206406,           0.
    848,  -7.47768068,  -7.33850241,           0.
    849,   10.7573071,  -6.70466852,           0.
    850,    6.3596797,  -13.0815983,           0.
    851,  -14.4002132,   11.6130953,           0.
    852,  -12.8643961,  -4.38807964,           0.
    853,  -16.3902512,   10.1630049,           0.
    854,    11.939188,  -7.43682146,           0.
    855,  -7.33251715,   7.36104059,           0.
    856,  -16.2477665,  -2.42689395,           0.
    857,  -18.7982101, -0.331077754,           0.
    858,  -16.5217991,   9.51071167,           0.
    859,   16.6544704,  -14.3697281,           0.
    860,  -6.21358013,   6.37945509,           0.
    861,  -2.71243811,   3.11551762,           0.
    862,   -19.486578,   7.22599697,           0.
    863,  -17.3515968,  -1.33511198,           0.
    864,  -17.7870655,   8.83130932,           0.
    865,  -5.11340809,   5.29135847,           0.
    866,  -20.6929035,   4.08849049,           0.
    867,  -20.6464634,   6.52330828,           0.
    868,  -8.25280952,   8.64601326,           0.
    869,  -14.9364319,   14.8528194,           0.
    870,  -13.0364075,  -3.70965171,           0.
    871,  -9.67544556,      11.0527,           0.
    872, -0.420041829,   1.23327565,           0.
    873,   4.52452564,   -12.238555,           0.
    874,  -18.1319904, -0.863148391,           0.
    875,   7.56050253,  -4.50859165,           0.
    876,   15.4503307,  -11.1756992,           0.
    877,  -11.7891998,  -4.24599075,           0.
    878,  -1.95336056,   3.20197678,           0.
    879,  -10.3139591,  -5.34713411,           0.
    880,   3.08186316,  -11.1911259,           0.
    881,  -1.07406831,  -10.0155907,           0.
    882,   3.38047147,  -11.8646336,           0.
    883,  -8.40307426,  -6.87299776,           0.
    884,   10.1205778,  -14.0730686,           0.
    885,   1.27194643,  0.221700415,           0.
    886,  0.297255844,   1.46705472,           0.
    887,   4.62859964, -0.949709833,           0.
    888,    13.031333,  -15.7553339,           0.
    889,  -4.20314217,  -8.56032276,           0.
    890,  0.497884333,  0.794322133,           0.
    891,  -12.8987684,   13.0920143,           0.
    892,  0.900903046,  0.518321395,           0.
    893,  -6.99554968,  -7.55838633,           0.
    894,  -15.2698946,  -2.80984592,           0.
    895,  -13.0021858,   14.2158775,           0.
    896,  -7.29397488,  -6.86778879,           0.
    897,   10.9987602,  -6.27580738,           0.
    898,   11.1783838,  -14.4162893,           0.
    899,   10.6392374,  -14.2563868,           0.
    900,   8.84296989,  -14.0633087,           0.
    901,   12.0356693,  -15.3506813,           0.
    902,  -3.13265467,  -9.04507351,           0.
    903,   16.5888844,  -13.5265837,           0.
    904,   14.3564339,  -9.86627674,           0.
    905,   13.7251263,  -9.73486996,           0.
    906,  -8.74509907,   9.99401474,           0.
    907,     16.71171,  -15.5485392,           0.
    908,  -14.0747786,   14.8094282,           0.
    909,  -5.84060955,   6.03357792,           0.
    910,  -13.6853323,   11.9258556,           0.
    911,  -10.9144821,  -4.96815157,           0.
    912,  -11.9791527,   12.3920422,           0.
    913,  -12.7927847,    12.515975,           0.
    914,  -14.0974531,  -3.63025713,           0.
    915,  -15.6226215,    9.9785471,           0.
    916,  -20.7643566,   3.59906507,           0.
    917, 0.0595206283,  -9.85921192,           0.
    918,  -6.96345186,     7.042274,           0.
    919,   3.91718245,  -12.0520849,           0.
    920,  -5.82679272,   -7.4932394,           0.
    921,  -13.3113985,   12.4872017,           0.
    922,   14.7808199,  -11.3930826,           0.
    923,   -8.4789505,   8.18214321,           0.
    924,   15.1694784,   -11.661128,           0.
    925,  -15.3343983,   9.56854057,           0.
    926,  -13.5127516,   13.7211189,           0.
    927,   12.2487345,   -14.810586,           0.
    928,  -6.58910751,   6.71578169,           0.
    929,  -16.9540291,   9.28530312,           0.
    930,  -20.1294422,   4.00714588,           0.
    931,  -19.5538464,   6.65433931,           0.
    932,  -19.8571644,   7.61889935,           0.
    933,   6.74997568,  -13.2288122,           0.
    934,  -14.1624413,   11.3207579,           0.
    935,     16.66679,  -14.7715492,           0.
    936,  -9.68207836,   10.3823776,           0.
    937,   5.88768768,  -12.3434649,           0.
    938,   16.6272831,  -13.9518766,           0.
    939,   11.2068539,  -7.18077421,           0.
    940,  -4.75179338,   4.92863703,           0.
    941,   7.95572424,  -13.0102882,           0.
    942,   5.08336782,  -12.0351782,           0.
    943,   2.61288905,  -10.9874716,           0.
    944,   16.5510807,  -13.0974569,           0.
    945, -0.907733858,   1.39177597,           0.
    946,  -15.1413536,    10.238946,           0.
    947,  -20.6142578,   4.58741522,           0.
    948,  -13.1127844,  -3.02835393,           0.
    949,  -9.71100426,   -5.3663063,           0.
    950,  -8.54878998,  -6.22057104,           0.
    951,  -20.4985294,   6.00784731,           0.
    952,   14.8083706,  -9.48352051,           0.
    953,   13.5078297,  -15.9280825,           0.
    954,   13.3806286,  -9.46282387,           0.
    955,  -18.6870213,  0.233020708,           0.
    956,  -7.75351381,  -6.69892311,           0.
    957,   9.61913109,  -13.8451662,           0.
    958,   16.8756866,  -15.9564085,           0.
    959,  0.486990839,  -9.73692131,           0.
    960,   11.7243032,  -14.5777874,           0.
    961,  -13.7100439,  -3.88599181,           0.
    962,  -14.4058619,  -3.39941287,           0.
    963,  -6.32281733,  -7.27542591,           0.
    964,  0.599183381,  0.143891916,           0.
    965,  -13.2497387,   11.3939734,           0.
    966,  -20.8393707,   3.12147045,           0.
    967,  -11.0328455,   12.1568651,           0.
    968,  -14.7756166,  -2.93333554,           0.
    969,  -17.7088833,   9.50112152,           0.
    970,  -5.31936407,  -7.68685675,           0.
    971,  -17.8361111, -0.486611575,           0.
    972,  -3.74137616,  -9.03736019,           0.
    973,  -16.7193413,  -2.20743632,           0.
    974,  -10.3933077,   -4.9292798,           0.
    975,  -1.88582528,   2.47743034,           0.
    976,   8.70930481,  -13.2092285,           0.
    977,   13.9259357,  -10.0642481,           0.
    978,   -5.4556179,  -8.21337605,           0.
    979,   4.08355713,   -11.506629,           0.
    980,  -17.4998684,   8.41920757,           0.
    981,  -3.16019344,   3.43496561,           0.
    982,   15.5128946,  -16.1490879,           0.
    983,  -3.32006526,   -8.7120657,           0.
    984,  -16.2040195,   9.06876755,           0.
    985,  0.256451607,  0.409969598,           0.
    986,   15.5366106,  -11.9240789,           0.
    987,   15.7035913,  -14.6912479,           0.
    988,   16.6704235,  -15.1568661,           0.
    989,   14.0462036,  -15.6347189,           0.
    990,   14.3693752,  -11.1707563,           0.
    991,  -9.80126286,   9.48826599,           0.
    992,  -8.24514484,  -5.88373756,           0.
    993,    -20.50387,   5.07389212,           0.
    994,   13.6373177,  -15.4839029,           0.
    995,  -1.37630963,   1.51569259,           0.
    996,   15.3985434,   -15.642024,           0.
    997,  -8.07671738,   7.94585037,           0.
    998,   14.9443521,  -12.1594982,           0.
    999,  -3.67864585,   3.76319551,           0.
   1000,  -6.14386272,  -6.76766348,           0.
   1001,  -5.50174475,   4.93361712,           0.
   1002,  -4.35311174,   4.61931896,           0.
   1003,  -20.9173183,   5.68093252,           0.
   1004,   -19.709137,   6.27441359,           0.
   1005,  -11.2935953,   11.4187737,           0.
   1006,  -18.1228962,  0.248095289,           0.
   1007,   5.09479141,  -11.5823708,           0.
   1008,   2.82814765,  -10.5353298,           0.
   1009,   1.92321301,  -11.2030725,           0.
   1010,   5.62650442,  -12.1199551,           0.
   1011,  -0.61754638,  0.724385619,           0.
   1012,  -5.47557497,   5.67207289,           0.
   1013,   16.3082943,  -15.5905943,           0.
   1014,  0.617876172,  -10.3151951,           0.
   1015,   11.4024687,  -7.62974024,           0.
   1016,   10.6040926,  -7.24755716,           0.
   1017,  -15.7717686,   9.31389332,           0.
   1018,  -13.8153629,  -3.18609548,           0.
   1019,  -12.6851931,  -3.24532723,           0.
   1020,   12.9969845,  -9.18020248,           0.
   1021,   7.42788649,  -13.1010857,           0.
   1022,  -19.5656319,   3.96902108,           0.
   1023,  -17.3790035,   9.05925465,           0.
   1024,  -17.8077049,   8.19290066,           0.
   1025,   -9.6351614,  -5.98387051,           0.
   1026,  0.556608558, -0.580118537,           0.
   1027,  -7.14979458,  -6.35686255,           0.
   1028,  -1.50386691,   2.17232776,           0.
   1029,  -2.63256192,   2.36657214,           0.
   1030,   5.30279732,  -12.3892765,           0.
   1031,  -10.3395977,  -4.41961908,           0.
   1032,  -14.5944424,   10.5485401,           0.
   1033,  -12.9380264,   10.7591295,           0.
   1034,  -13.1988802,   11.9343443,           0.
   1035,  -16.4928722,  -1.77055287,           0.
   1036,     3.740206,  -10.8660641,           0.
   1037,  -21.4440708,   2.70626283,           0.
   1038,  -5.19544601,  -7.18002558,           0.
   1039, -0.299902856,  0.109394811,           0.
   1040,   9.43296528,  -13.1177053,           0.
   1041,  -17.5677223, -0.00986015517,           0.
   1042,  -17.4774151, -0.704132795,           0.
   1043,  -2.80521584,  -8.54425907,           0.
   1044,   12.5101233,  -14.2914772,           0.
   1045,    7.0886631,  -13.3630114,           0.
   1046,   15.3316402,  -12.3848352,           0.
   1047,   13.9822903,  -10.5265989,           0.
   1048,  -0.86772275,  -9.58959007,           0.
   1049,   9.74946308,  -7.28106117,           0.
   1050,   5.23250961,   -11.097578,           0.
   1051,  -15.4528093,   8.88688278,           0.
   1052,  -4.69578028,  -6.80294704,           0.
   1053,  -4.73920155,  -7.28941822,           0.
   1054,   3.03313708,  -10.0765772,           0.
   1055,  -9.21356678,   9.44495487,           0.
   1056,   15.1875734,  -14.2113256,           0.
   1057,   15.8632345,  -15.6234608,           0.
   1058,  -3.97131944,   4.27303123,           0.
   1059,   14.1737881,  -11.7201672,           0.
   1060,  -18.7782211,   7.13709879,           0.
   1061,   2.16091084,   -10.753458,           0.
   1062,  -3.88784003,    3.1967566,           0.
   1063,    -18.10952,   7.87151098,           0.
   1064,  -9.20700932,  -5.46403933,           0.
   1065,  -21.6562386,     4.839396,           0.
   1066,  -5.17865229,   4.44797897,           0.
   1067,  -18.8907185,  0.492275268,           0.
   1068,  -12.1064186,  -3.13477135,           0.
   1069,   3.27572989,  -10.7120085,           0.
   1070,  -14.4207563,   10.0157318,           0.
   1071,   14.5001593,  -16.1350498,           0.
   1072,   11.5597696,  -8.13218498,           0.
   1073,  0.955909789,  -9.56375027,           0.
   1074,  -16.4489822, -0.693017721,           0.
   1075,   6.16414642,  -12.0248671,           0.
   1076,  -2.49231863,  -7.85403824,           0.
   1077,   15.7229691,  -12.5611973,           0.
   1078,   13.3027573,  -8.72897243,           0.
   1079,   12.7286901,  -9.63093758,           0.
   1080,  -16.0416374,  -1.96909821,           0.
   1081,  -19.5487061,   4.59364319,           0.
   1082,   10.8905449,  -7.74982357,           0.
   1083,  -20.9121799,   2.65744376,           0.
   1084,  -9.83848381,  -4.44369078,           0.
   1085,   7.59041119,  -13.7426882,           0.
   1086,  -0.76699549,  0.202181354,           0.
   1087,   13.4397278,  -10.5174417,           0.
   1088,   7.42987013,  -12.5036449,           0.
   1089,  -12.7432499,    11.272603,           0.
   1090,   14.9341803,  -15.6608973,           0.
   1091,   13.0173178,  -14.5472479,           0.
   1092, -0.177863732,  -8.70700455,           0.
   1093,  -2.21757293,  -8.41205215,           0.
   1094,   11.9616337,  -13.9216795,           0.
   1095,  -13.9977703,   10.5597677,           0.
   1096,  -12.6647625,  -3.96334004,           0.
   1097,  -6.64410496,  -6.53972626,           0.
   1098,  -19.6595917,   5.82502651,           0.
   1099,   4.22724247,  -10.9768486,           0.
   1100,  -11.6915369,   11.2838154,           0.
   1101,  -13.1835661,   10.3724222,           0.
   1102,  -8.31485653,   7.54107523,           0.
   1103,   -1.6097008,  -9.43509674,           0.
   1104,  -5.93199015,   4.67535353,           0.
   1105,   1.08500743, -0.962419987,           0.
   1106,  -3.04230142,   2.67634153,           0.
   1107,  -20.0032101,   4.91275358,           0.
   1108,   14.4172754,  -15.2149181,           0.
   1109,   16.1857719,  -14.7262793,           0.
   1110,  -5.47516441,  -6.50778008,           0.
   1111,   8.38886833,  -12.7475414,           0.
   1112,  -6.52558899,   6.01563263,           0.
   1113,    1.1229825,  -10.7189369,           0.
   1114,   14.3526735,   -12.407423,           0.
   1115,  -17.1363163,  0.316794217,           0.
   1116, 0.0518706925,  -0.88507098,           0.
   1117,  -20.4197216,   2.57214904,           0.
   1118,  -14.1074944,  -2.51830959,           0.
   1119,     9.751544,  -5.36728907,           0.
   1120,  -16.6352215,   8.83652401,           0.
   1121,  -17.1783733,  -1.97640181,           0.
   1122,  -7.09164524,  -5.73744059,           0.
   1123,   -3.3828423,   2.23808217,           0.
   1124,   12.1390915,   -9.7552824,           0.
   1125,   -1.3714962, -0.226148963,           0.
   1126,   4.36119938,  -10.4736404,           0.
   1127,  -7.20055103,   5.94540548,           0.
   1128,   1.61923385,  -9.75243282,           0.
   1129,  -17.3554306,   7.94021368,           0.
   1130, -0.863188684, -0.311808348,           0.
   1131,  -16.8143921,   8.16597557,           0.
   1132,  -4.27790499,   3.71941161,           0.
   1133,  -12.0168295,   11.5458622,           0.
   1134,  -11.7636433,   10.8876915,           0.
   1135,  -17.4345322,  -2.38550854,           0.
   1136,  -4.14633894,   2.75863719,           0.
   1137,  -1.62356758,  -8.52735615,           0.
   1138,   15.7642794,  -15.1438293,           0.
   1139,   9.32027245,  -5.06181431,           0.
   1140,   13.4884005,  -14.7915258,           0.
   1141,  -4.27551126,  -7.30778837,           0.
   1142,  -9.07486343,   7.88346338,           0.
   1143,   9.49605083,   -5.8376503,           0.
   1144,  -18.4396954,   7.51819086,           0.
   1145,   2.62492728,  -9.89889812,           0.
   1146,   9.66788292,  -6.56417942,           0.
   1147,  -3.60465431,   4.61348104,           0.
   1148,   15.2107763,   -14.663331,           0.
   1149,  -13.9630146,   11.5364466,           0.
   1150,   1.48481894,  -10.9459352,           0.
   1151,   6.11751795,  -11.4373112,           0.
   1152,  -14.6415577,   9.43203926,           0.
   1153,  -15.4011211,  -1.67573929,           0.
   1154,  0.788861752,  -9.05429173,           0.
   1155,  -8.55713177,   7.18592453,           0.
   1156,  -4.77107859,   3.78079391,           0.
   1157,   6.33103323,  -12.2779913,           0.
   1158,   12.8276281,  -10.4331808,           0.
   1159,  -8.48273277,  -5.23606348,           0.
   1160,  -11.6073313,  -3.18451953,           0.
   1161,   13.1092453,  -9.89470005,           0.
   1162,  0.267159283,  -8.68358517,           0.
   1163,   12.5655928,  -8.90510464,           0.
   1164,   3.89826155,  -10.3653231,           0.
   1165,  -9.32334423,  -4.41183472,           0.
   1166,   7.01225042,  -12.3769627,           0.
   1167,  -18.4943581,   8.25400448,           0.
   1168,  -19.8176556,    5.3677578,           0.
   1169,  -3.31584907,  -7.06706905,           0.
   1170,  -19.3221245,   6.26368856,           0.
   1171,  -20.1198215,   2.10360265,           0.
   1172,   1.50079346, -0.760457098,           0.
   1173,  -1.17321694,  -9.04247189,           0.
   1174,  -5.94870234,  -6.27825737,           0.
   1175,  -16.7449474,  0.536687434,           0.
   1176,  -17.7602463,  0.462957114,           0.
   1177, -0.300371766, -0.459472656,           0.
   1178,  0.676422298,  -1.06388056,           0.
   1179,   8.15836906,   -12.308507,           0.
   1180,   7.73026514,  -12.1439056,           0.
   1181,  -12.9363203,  -2.38581586,           0.
   1182,  -14.4856596,   -1.9066447,           0.
   1183,   14.2264252,  -14.7802925,           0.
   1184,   14.1306534,  -12.8267183,           0.
   1185,   -20.953022,   2.20341325,           0.
   1186,   11.8351488,  -13.2571793,           0.
   1187,   -9.8203764,    9.0030756,           0.
   1188,  -14.2613201,   9.58377266,           0.
   1189,   15.1688166,  -12.8828335,           0.
   1190,  -13.6336727,   10.2189064,           0.
   1191,   12.0840311,  -8.70311165,           0.
   1192,  -6.33649158,   4.47256851,           0.
   1193,  -12.9041986,   10.1289701,           0.
   1194, -0.638933778,  -8.65708733,           0.
   1195, -0.711372495,  -9.14770508,           0.
   1196,   14.4711103,  -13.1688251,           0.
   1197,   13.2921581,   -14.070838,           0.
   1198,  -10.3273678,   8.98751926,           0.
   1199,  -2.98760176,   1.92408717,           0.
   1200,   -6.8348465,   5.64653063,           0.
   1201,  -9.87343025,     8.509161,           0.
   1202,     4.856709,   -10.541029,           0.
   1203,  -1.94691086,  0.406459898,           0.
   1204,   11.9366512,  -9.21490383,           0.
   1205,  -11.3069763,     10.39009,           0.
   1206,  -3.77470469,   2.51931882,           0.
   1207,  0.636491179,  -8.66801262,           0.
   1208,  -7.62705708,   6.96271849,           0.
   1209,   1.98409927,  -10.0762663,           0.
   1210,    2.8152113,  -9.48703098,           0.
   1211,  -8.22650909,  -4.50810719,           0.
   1212,  -1.50113297,  -8.04156113,           0.
   1213,   5.70318794,  -11.2020988,           0.
   1214,   12.8930359,  -10.9940519,           0.
   1215,  -15.2446718,  -1.22419739,           0.
   1216,   9.91903305,  -6.13297462,           0.
   1217,  -16.6711521, -0.223609447,           0.
   1218,   9.39391613,  -6.93551731,           0.
   1219,  -11.4942932,  -2.64536023,           0.
   1220,  -9.34019375,  -3.97073746,           0.
   1221,  -13.1992521,    9.6278944,           0.
   1222, -0.618249118,  -0.94448173,           0.
   1223,    12.835393,   -8.3947382,           0.
   1224,  -6.20775843,  -5.55607462,           0.
   1225,  -12.4869823,  -2.05297041,           0.
   1226,   -2.6709094,  -7.36293268,           0.
   1227,    -3.697191,  -7.74838829,           0.
   1228,  -14.9481745,   -1.7988168,           0.
   1229,   1.21123135,  -1.34438205,           0.
   1230,  -7.54580545,  -5.23228645,           0.
   1231,   11.3672361,  -12.7298851,           0.
   1232,  -6.24626923,   4.16687012,           0.
   1233,  -6.53818512,   4.76281881,           0.
   1234,  -20.1082001,   1.79321551,           0.
   1235,  -20.2798576,   3.01672912,           0.
   1236,   13.9068489,   -14.280736,           0.
   1237,  -18.7120667,   6.34394217,           0.
   1238,  -4.76923037,  -6.31794024,           0.
   1239,  -9.26358318,  -4.90204668,           0.
   1240,  -17.3626194,   7.19049501,           0.
   1241,   8.75786304,  -12.4133129,           0.
   1242,  -13.9978333,  -2.00233626,           0.
   1243,  -17.6019173,   1.12140822,           0.
   1244,  -15.5754938,  -2.14784455,           0.
   1245,  0.513040602,  -1.59085596,           0.
   1246,    9.0597887,  -5.55333233,           0.
   1247,  -3.88662529,  -6.77315521,           0.
   1248,   14.7130909,  -14.6572342,           0.
   1249,  -5.24328804,    3.8539381,           0.
   1250,  -18.6322556,  0.754866838,           0.
   1251,  -1.89306831, -0.233801723,           0.
   1252,  -19.3025856,   5.19181204,           0.
   1253,   11.0550222,  -8.66426754,           0.
   1254,  -4.48953438,   2.41281557,           0.
   1255,   7.45769215,  -12.0486717,           0.
   1256,  -9.51377773,   7.96595097,           0.
   1257,  -7.50256491,   5.54283285,           0.
   1258,  -4.84297562,   3.31638598,           0.
   1259,   4.95318747,  -10.0540915,           0.
   1260,   -7.1342082,   5.25324392,           0.
   1261,   2.24635243,  -9.68733501,           0.
   1262,  -13.8801489,  -1.47904122,           0.
   1263,  -18.4245834,   1.24903035,           0.
   1264,  -9.97976494,    8.0151453,           0.
   1265,  -2.84110188,  -6.86583328,           0.
   1266,  -19.6636105,   2.82811093,           0.
   1267,   8.48302937,  -12.0276718,           0.
   1268,  -19.6060181,   3.40696239,           0.
   1269,   9.38657856,  -12.4226246,           0.
   1270,  -2.55016494,   1.61220694,           0.
   1271,  -18.3829861,   6.77677584,           0.
   1272,  -1.01359749, -0.800134122,           0.
   1273, -0.823439062,   -1.2908771,           0.
   1274,  -17.6756287,   6.83317757,           0.
   1275,   10.5609064,  -8.27513504,           0.
   1276,  -12.4647017,   10.4641819,           0.
   1277,  -5.02558231,  -5.60869074,           0.
   1278,  -8.28376961,    6.8674612,           0.
   1279,   1.27266586,  -1.82769763,           0.
   1280,   1.67769516,  -1.15707386,           0.
   1281,  -10.7916079,    10.301239,           0.
   1282,  -11.8284512,   10.3618011,           0.
   1283, -0.594794929,  -8.16669655,           0.
   1284,   1.66747665,  -8.52397156,           0.
   1285,  -16.7454567,   7.15665293,           0.
   1286,  -4.29641342,  -6.37203693,           0.
   1287,   -13.429615,    10.048686,           0.
   1288,   6.31344795,  -11.0634422,           0.
   1289,   11.8257828,  -9.62452984,           0.
   1290,   10.5653238,  -9.08682537,           0.
   1291,  -15.6573677,  -1.06483018,           0.
   1292,  -3.71984005,  -6.17485285,           0.
   1293,  -12.0936508,  -2.50355864,           0.
   1294,   9.35660267,  -7.57908201,           0.
   1295,   8.38848019,  -5.83027124,           0.
   1296,  -10.2550364,  -3.89174342,           0.
   1297,    10.339324,  -6.43982887,           0.
   1298,  -6.16575003,   5.68719673,           0.
   1299,   10.8983459,  -13.2198896,           0.
   1300,   8.98506069,  -7.20961285,           0.
   1301,  -3.55121875,   -8.2669239,           0.
   1302,  -9.62565422,   7.48153591,           0.
   1303,  -20.5156689,   1.76032007,           0.
   1304,   8.61268711,  -5.27781868,           0.
   1305,  -6.70247459,  -5.24812698,           0.
   1306,  -18.7771797,   5.01981592,           0.
   1307,  -4.88528919,   2.77108359,           0.
   1308,  -1.47650242,  -1.09155464,           0.
   1309,  -8.91607285,   8.35108471,           0.
   1310,   -17.893219,   1.56328261,           0.
   1311,  -11.2253332,  -3.79290628,           0.
   1312,    7.2584281,  -11.4215803,           0.
   1313,  -3.97158456,   -6.4404664,           0.
   1314,   9.25917435,  -6.28613472,           0.
   1315,  0.894631445,  -8.23463249,           0.
   1316,   2.69052148,  -8.90975285,           0.
   1317,  -11.0151377,  -2.77233601,           0.
   1318,  -18.9824562,   3.90802836,           0.
   1319,  -8.82398987,  -4.28607655,           0.
   1320,  -19.5969162,    1.4948858,           0.
   1321,  -17.1290493,   1.36050951,           0.
   1322,  -14.7463274,  -0.68858701,           0.
   1323,  0.801556408,  -1.77054572,           0.
   1324, -0.0523842387,  -1.57824552,           0.
   1325,   12.2650433,  -10.6934366,           0.
   1326,  -6.26667452,   3.75762224,           0.
   1327,  -6.86319399,   3.69926071,           0.
   1328,  -10.7452869,  -3.85064101,           0.
   1329,  -10.6465139,  -3.33608079,           0.
   1330,  -18.4128265,   3.84198117,           0.
   1331,   11.7951231,  -10.9072561,           0.
   1332,  -6.35129786,  -4.81875801,           0.
   1333,  -5.90586615,  -5.11011934,           0.
   1334,  -6.78474998,   5.00672817,           0.
   1335,    5.0181241,  -9.59669876,           0.
   1336,  -19.0124187,   1.18406427,           0.
   1337,  -19.0317841,   2.84236956,           0.
   1338,   13.9923363,  -13.1939421,           0.
   1339,  -4.12279701,  -5.94605255,           0.
   1340,  -2.09836364,   1.29869485,           0.
   1341,   -13.394124,  -1.56485772,           0.
   1342,  -8.34946346,  -4.12464237,           0.
   1343,   9.70156574,  -12.7292938,           0.
   1344,  -9.25279236,   6.97610426,           0.
   1345,   11.8563356,  -9.96108437,           0.
   1346,  -16.4061298,   7.33823824,           0.
   1347,  -17.2804337,   6.51084375,           0.
   1348,   11.4361143,   -10.058301,           0.
   1349,  -12.7119007,   9.37306976,           0.
   1350,   10.1319437,  -8.69922256,           0.
   1351,   7.95565176,   -5.6406312,           0.
   1352, -0.973911941,  -7.63520241,           0.
   1353,  -18.5753593,   5.56100988,           0.
   1354,   8.18415737,  -6.36952019,           0.
   1355,   8.48107147,  -7.03270864,           0.
   1356,   8.47693729,  -4.45922184,           0.
   1357,   -1.4335798,  -7.47203398,           0.
   1358,   6.80460072,  -11.0763903,           0.
   1359,   2.37274885,  -8.62479877,           0.
   1360,   10.7939777,  -13.7376575,           0.
   1361,   10.9519768,  -12.7035513,           0.
   1362,  -20.0391712,   1.37668037,           0.
   1363,  -16.8896828,   0.93985796,           0.
   1364,   -17.399641,   1.80311179,           0.
   1365,  -19.1169243,   1.61265409,           0.
   1366,   -14.229475, -0.840460181,           0.
   1367,  0.228638291,  -1.91165435,           0.
   1368,   2.11497068,  -8.24227715,           0.
   1369,   9.62383747,  -7.91659403,           0.
   1370,   1.94668007,  -9.03784561,           0.
   1371,  -7.87864399,   5.84400749,           0.
   1372,   2.17340231, -0.916944325,           0.
   1373,   7.88731289,  -11.3540764,           0.
   1374,  -9.69626999,   7.00119495,           0.
   1375,  -10.9299803,   9.82627392,           0.
   1376,  -10.4372559,   8.06289864,           0.
   1377,    6.6085825,  -10.4735126,           0.
   1378,  -4.11568737,   2.13044095,           0.
   1379,  -7.71219206,   4.40446281,           0.
   1380,   -2.5480473, 0.0742823333,           0.
   1381, -0.401683807,  -1.90030408,           0.
   1382,   -8.2678051,   6.15052986,           0.
   1383,   1.55169261,  -2.11626983,           0.
   1384,  -7.91353416,    -4.195786,           0.
   1385,  -4.82353592,  -5.17823315,           0.
   1386,  -10.8064566,   9.26812744,           0.
   1387,  -7.54532862,  -4.49559355,           0.
   1388,  -12.8673544,  -1.65990293,           0.
   1389,  -17.8727016,   5.78710985,           0.
   1390,   7.88084936,  -10.7539015,           0.
   1391,   8.18720531,  -11.0292492,           0.
   1392,  -10.2096329,   10.1752911,           0.
   1393,  -10.5594683,  -2.86220932,           0.
   1394,  -11.1167974,   9.41170979,           0.
   1395,  -18.6413136,   1.81798196,           0.
   1396,  -7.30683613,   4.08015203,           0.
   1397,   15.0208807,  -13.4737406,           0.
   1398,  -13.7452717, -0.968833208,           0.
   1399,  -8.86076546,   6.98537445,           0.
   1400,   12.0048704,  -11.2700729,           0.
   1401,  -6.78049088,  -4.47367001,           0.
   1402,  -5.47960806,  -5.38258934,           0.
   1403,   4.60680628,  -9.51226807,           0.
   1404,  -16.5718689,   7.72635889,           0.
   1405,  -1.80904233,   1.75671124,           0.
   1406, -0.260129839,  -2.83145475,           0.
   1407,   13.5920706,  -13.0805368,           0.
   1408,  -16.6637821,   1.58884525,           0.
   1409,  -16.3389606,  0.583351076,           0.
   1410,  -10.1777706,   7.02072048,           0.
   1411,   2.73751092,  -8.32590389,           0.
   1412,   1.89112985,  -3.03652549,           0.
   1413,  -8.54687881,   5.70288658,           0.
   1414,  -6.21680403,   3.37374544,           0.
   1415,   9.94449234,  -12.4088879,           0.
   1416,   10.9365788,  -9.60385609,           0.
   1417,  -18.9584808,   2.33094692,           0.
   1418,   8.31488514,  -7.49114084,           0.
   1419,   8.62938213,  -6.54977703,           0.
   1420,   1.93142867,  -7.78496933,           0.
   1421,   10.4617004,  -13.1155653,           0.
   1422,   2.79949903,  -1.63886726,           0.
   1423,  -9.73290443,   6.53458214,           0.
   1424,  -8.10795116,   4.70148373,           0.
   1425,  -10.8604698,   8.84159184,           0.
   1426,  -4.52474451,   1.07768297,           0.
   1427,    6.0055995,  -10.0119457,           0.
   1428,  -3.02012324, -0.190344557,           0.
   1429,    1.9460839,  -2.03335094,           0.
   1430, -0.551932931,  -7.69778728,           0.
   1431,  -3.89697409,  -5.50370502,           0.
   1432,   -18.352562,   4.36607504,           0.
   1433,   7.53051186,  -5.52342749,           0.
   1434,  -16.6335506,   6.60925722,           0.
   1435,   -20.947361,   1.76393592,           0.
   1436,    11.786562,  -12.7073069,           0.
   1437,  -10.5910568,   7.56509829,           0.
   1438,   2.38551211, -0.162191704,           0.
   1439,  -15.4390926, -0.645737708,           0.
   1440,  -18.4370022,   3.29318857,           0.
   1441,  -17.5649796,   6.14263391,           0.
   1442,  0.811909556,  -2.85345507,           0.
   1443,  -8.92139053,   5.93793392,           0.
   1444,   5.47276545,  -10.0625019,           0.
   1445,  -13.1073942, -0.588050246,           0.
   1446,  -15.9583225,   1.59912705,           0.
   1447,   8.00639057,  -6.87056637,           0.
   1448,   11.7065859,  -11.4120598,           0.
   1449,  -16.5160542,   2.21394706,           0.
   1450,   5.40300274,  -9.26911736,           0.
   1451,    12.274231,  -13.1214104,           0.
   1452,   12.2091856,  -12.6398287,           0.
   1453,   9.85189724,  -13.3841839,           0.
   1454,   11.7247572,  -11.7667437,           0.
   1455,   10.9302464,  -10.1125793,           0.
   1456,  -13.5801105,  -0.47472173,           0.
   1457,  -21.2535572,  0.980454862,           0.
   1458,   9.57038212,  -8.80859375,           0.
   1459,  -16.2109203,   6.96016264,           0.
   1460,  -5.74667168,   3.83055639,           0.
   1461,  -16.3812695,   6.03682613,           0.
   1462,   9.75948048,  -9.53268242,           0.
   1463,  -11.4281874,   9.52921104,           0.
   1464,  -10.0571957,  -2.83869362,           0.
   1465,   8.50215626,  -11.3420906,           0.
   1466,   7.62620878,  -10.4992132,           0.
   1467,    15.680851,   -13.866334,           0.
   1468,  -7.68204165,   3.68144107,           0.
   1469,  -10.8036823,  -2.28120279,           0.
   1470,  -6.38548279,   2.85387611,           0.
   1471,   4.04853916,  -9.87196541,           0.
   1472,  -16.3225079,   8.37011337,           0.
   1473,  0.156018391,  -3.27597141,           0.
   1474,  -6.01439381,  -3.79234838,           0.
   1475,    13.050684,  -13.4292088,           0.
   1476,  -4.13001204,   1.48764896,           0.
   1477,   1.34481263,  -2.96952271,           0.
   1478,   -5.2325983,  -4.99187803,           0.
   1479,   -10.857254,   8.15852356,           0.
   1480,   6.54114723,  -9.37920094,           0.
   1481,  -2.92061257, -0.583980978,           0.
   1482,  -18.4540787,   2.67530918,           0.
   1483,   8.69850445,  -7.69654942,           0.
   1484,   9.70174026,  -12.0999069,           0.
   1485,   7.35478735,  -6.02068472,           0.
   1486,  -17.8579025,    3.8027842,           0.
   1487,   -3.2605288,   -5.0977149,           0.
   1488,  -14.8492451,  0.106160969,           0.
   1489, -0.441589028,  -6.62447929,           0.
   1490,  -9.33366585,   6.05136061,           0.
   1491,   2.46241069,   -1.9408046,           0.
   1492,   3.46749449,  -1.90512216,           0.
   1493,  -2.82565641,  0.458819658,           0.
   1494,  -17.1175461,   5.74596643,           0.
   1495,  -15.8540545,  0.392458797,           0.
   1496,   1.30592811,  -7.43964434,           0.
   1497,  -8.49145412,   4.98465776,           0.
   1498,   7.78881788,  -7.85645723,           0.
   1499,   4.20554447,  -9.38449574,           0.
   1500,   11.3587322,  -12.2231798,           0.
   1501,   2.38812852,  -7.60977888,           0.
   1502,    10.566906,  -12.1831179,           0.
   1503,  -10.7081051,   7.02433538,           0.
   1504,   -3.8409903,   1.22530329,           0.
   1505,   -3.2346611,  0.140447646,           0.
   1506,  -2.87469959,   1.17692137,           0.
   1507,  -3.38454771,   1.46287787,           0.
   1508,    -11.24189,   -2.0982821,           0.
   1509,  -20.5711594,  0.225740418,           0.
   1510,  -9.20806503,  -3.58174706,           0.
   1511,   10.9632959,  -11.7391768,           0.
   1512,   8.83263206,  -10.9825726,           0.
   1513,   -9.2503767,   4.84658527,           0.
   1514,  -8.81433678,   4.55242634,           0.
   1515,  -16.6690254,   2.58751416,           0.
   1516,  -11.3453169,   7.02378225,           0.
   1517,   12.7363529,  -13.3260708,           0.
   1518,   9.79331112,  -11.4456177,           0.
   1519,   12.6533508,  -12.0722399,           0.
   1520,   11.3537006,  -11.7507095,           0.
   1521,  -11.3238239,   9.00361824,           0.
   1522,  -11.8891287,    9.6780405,           0.
   1523,   11.0122099,  -10.7025385,           0.
   1524,  -7.36445427,   3.30078506,           0.
   1525,  -15.6623602,   2.00697494,           0.
   1526,   -5.8961091,   2.06288409,           0.
   1527,  -7.11883879,   2.79976177,           0.
   1528,   10.3482313,  -10.0957584,           0.
   1529,  -4.83143473,   1.35201573,           0.
   1530,   7.83391571,  -10.2400017,           0.
   1531,   9.51378059,  -11.0159235,           0.
   1532, -0.399801612,  -3.22791648,           0.
   1533,  -2.33763242, -0.863660336,           0.
   1534,   1.78660131,  -3.57114816,           0.
   1535,   7.52298927,  -6.71204519,           0.
   1536,   9.08367157,  -8.55373764,           0.
   1537,   -5.3968997,  -4.10458708,           0.
   1538,   7.12178993,  -5.45035648,           0.
   1539,  -15.4964209, -0.0112119429,           0.
   1540,  -14.2387829,  0.346480578,           0.
   1541,   11.0227003,  -11.3640795,           0.
   1542,  -2.69387364,  -5.62517738,           0.
   1543,   3.82001829,  -2.11563468,           0.
   1544,  -1.07252812,  -6.63196945,           0.
   1545,  0.798459768,  -7.56843424,           0.
   1546,   4.02054644,  -8.74781418,           0.
   1547,  -10.7044086,   6.49326944,           0.
   1548,   7.38143444,  -7.25499678,           0.
   1549,   2.80660725,  -7.84961367,           0.
   1550,   1.81369293,  -7.28564215,           0.
   1551,  -5.00757885,  -4.27485418,           0.
   1552,  -9.42916298,   5.64008522,           0.
   1553,  -15.5432005,   8.17180443,           0.
   1554,  -4.38185024,  -5.33902168,           0.
   1555,   13.1582489,  -12.9125156,           0.
   1556,   -11.758564,   9.22866344,           0.
   1557,  -16.0548992, -0.870540202,           0.
   1558,   13.9795713,   -12.202796,           0.
   1559,  -9.76588535,   6.08324528,           0.
   1560,  -17.8116703,   2.78633761,           0.
   1561,   -15.836318,    7.1261158,           0.
   1562,  -17.3257771,    3.7867291,           0.
   1563,    9.3870945,  -14.3419094,           0.
   1564,    6.7124238,  -5.47476435,           0.
   1565,   -10.172719,     5.617414,           0.
   1566,  -15.3985529,  0.537810385,           0.
   1567,   9.65100288,  -10.1407633,           0.
   1568,  -9.77947712,   5.23554182,           0.
   1569,  -12.3060513,   9.53432274,           0.
   1570,  -13.8446798,  0.123444811,           0.
   1571,  -11.7146845,  -1.90266359,           0.
   1572,  -9.41338348,  -2.79298496,           0.
   1573,  -11.8382797,   7.40935087,           0.
   1574,   10.4906597,  -11.6395483,           0.
   1575,  -3.50706029,  0.421597362,           0.
   1576,  -16.2821007,   3.04283047,           0.
   1577,  -17.6384811,   2.27863646,           0.
   1578,  -7.27761841,   2.22146821,           0.
   1579,  -5.82609034,   3.00662518,           0.
   1580,   13.2610884,  -11.9029493,           0.
   1581,  -5.20616007,  0.977778375,           0.
   1582,  -15.3599329,   1.83576357,           0.
   1583,  -2.83132076,  -1.00218761,           0.
   1584,   -1.8714385, -0.748007715,           0.
   1585,  -15.1178017,   8.48208523,           0.
   1586,   2.48467565,  -3.05217957,           0.
   1587,   7.57476044,  -9.74927044,           0.
   1588,   7.14107513,  -4.98618031,           0.
   1589,  -5.82176924,  -4.10658407,           0.
   1590,   4.59520626,  -8.45674515,           0.
   1591,  -11.5648727,   8.56237602,           0.
   1592,  -2.74752569,  -5.08187389,           0.
   1593,  -2.53789163,  -6.15627718,           0.
   1594, -0.429887772,  -6.07777977,           0.
   1595,  -1.64104152,  -6.94895887,           0.
   1596,   2.83074617,  -7.52604961,           0.
   1597,   7.31706572,  -7.79705334,           0.
   1598,  -4.56415558,  -3.92339468,           0.
   1599,   13.4255362,  -12.4683876,           0.
   1600,   -4.1503315,  -4.40217543,           0.
   1601,  0.703564346,  -7.00205231,           0.
   1602,   9.91742992,  -10.7423773,           0.
   1603,  -12.9119196,  0.391516179,           0.
   1604,  0.688755095,   -3.3599813,           0.
   1605,   8.78767395,  -10.2531557,           0.
   1606,  -10.6512127,   5.98517752,           0.
   1607,   6.98221684,  -6.50094938,           0.
   1608,  -1.63166404,   1.02072084,           0.
   1609,   8.41530514,  -8.24269104,           0.
   1610,  -17.2834873,   4.24796677,           0.
   1611,   3.62573981,  -9.73336983,           0.
   1612,   1.73094547,   -6.7658205,           0.
   1613,    -17.32234,   3.33109689,           0.
   1614,   -4.9884882,   -3.9275918,           0.
   1615,   1.64653563,  -4.10030842,           0.
   1616, -0.497130007,  -3.71921563,           0.
   1617,  -3.63553357,  -4.00517988,           0.
   1618,   8.61690807,  -8.93211746,           0.
   1619,   5.10780716,   -9.1815958,           0.
   1620,   7.80966616,  -8.97575665,           0.
   1621,   10.7432108,  -11.1734371,           0.
   1622,  -17.2636719,   2.88586378,           0.
   1623,   3.04025555,  -8.01965714,           0.
   1624,   2.85418534,  -7.07158566,           0.
   1625,   7.13810444,  -4.47674894,           0.
   1626,  -9.78843498,   5.64995575,           0.
   1627,  -7.64956141,   2.65310264,           0.
   1628,  -7.09638977,   1.73634505,           0.
   1629,  -9.78390694,   4.83206129,           0.
   1630,   6.33714533,  -6.02653456,           0.
   1631,   -5.4038372,   2.90239191,           0.
   1632,  0.619795144,  -6.46796083,           0.
   1633,  0.289152026,  -7.62813377,           0.
   1634,  -15.2643938,  0.888976514,           0.
   1635,   2.87283564,   -2.5874114,           0.
   1636,  -15.1641798,   7.76277924,           0.
   1637,  -12.2039604,    7.0058465,           0.
   1638,  -11.5053282,   7.87382174,           0.
   1639,  0.581417084,  -3.86531782,           0.
   1640,   -3.8310554,  0.664306164,           0.
   1641,  -15.8091917,   2.73179626,           0.
   1642,  -15.1504316,   1.30981934,           0.
   1643,  -2.76192904,  -1.45152497,           0.
   1644,   4.24235439,  -8.28706932,           0.
   1645,   7.04341078,  -9.83500862,           0.
   1646,   7.31326294,  -8.28670311,           0.
   1647,  -11.1059513,   5.84619904,           0.
   1648,  -3.76573467,  -5.00346184,           0.
   1649,  -13.3128281,  0.425410688,           0.
   1650,  -9.58935165,  -2.16506147,           0.
   1651,   9.04735279,  -9.79385948,           0.
   1652,   6.40117168,  -6.54431009,           0.
   1653,  -17.7204895,   4.76608229,           0.
   1654,  -16.8266582,   3.77821946,           0.
   1655,  -10.5674095,   5.51322699,           0.
   1656,  -1.47344661,  -6.32296705,           0.
   1657,  0.979445159,  -4.43944693,           0.
   1658, -0.0130593227,  -4.31551552,           0.
   1659,  -5.03325272,  -3.47745395,           0.
   1660, -0.415843904,  -5.58469486,           0.
   1661,   -13.661993,  0.505396366,           0.
   1662,    3.2170198,  -9.59941387,           0.
   1663,   13.0839138,  -12.2664652,           0.
   1664,   7.46473503,  -9.36276436,           0.
   1665,   1.13137317,  -6.35958338,           0.
   1666,  -2.15825009,  -5.50144863,           0.
   1667,   13.3573618,  -11.4706116,           0.
   1668,   2.25928307,  -6.65178585,           0.
   1669,   10.1448002,  -11.2079382,           0.
   1670,  -15.5718908,   6.64568377,           0.
   1671,   6.76686764,  -7.80875444,           0.
   1672, -0.986033976,  -4.24857759,           0.
   1673,    2.1804204,  -4.26553774,           0.
   1674,  -11.8703728,   8.13235855,           0.
   1675,  -17.5435982,   5.57416916,           0.
   1676,   6.22670746,  -8.77701378,           0.
   1677,  -6.25735521,  -3.41647291,           0.
   1678,  -12.1267481,  -1.63177609,           0.
   1679,   3.02353215,  -8.62647152,           0.
   1680,   2.91220021,   -2.1249361,           0.
   1681,  -19.9156132,  0.450548559,           0.
   1682,   3.89755583,  -8.12745571,           0.
   1683,  -2.73089385,  -1.89057922,           0.
   1684,   5.89664602,  -6.54770517,           0.
   1685,  -4.04382896,  0.356241137,           0.
   1686,  -1.45590472,  -5.85431147,           0.
   1687,  -4.10849571,  -3.88262272,           0.
   1688,   8.50914669,  -9.54968166,           0.
   1689,  -17.2108765,   4.71108627,           0.
   1690,   5.87222624,  -8.59053898,           0.
   1691,  -9.45119381,   4.36070538,           0.
   1692,  -6.86782932,   1.48497355,           0.
   1693,   6.69228649,  -4.49674225,           0.
   1694,  -14.7513466,   8.09218502,           0.
   1695,   6.28990507,  -5.52148676,           0.
   1696,  -1.87103331,  -6.48857927,           0.
   1697,  -11.8944054,   6.63675737,           0.
   1698,  -16.2298717,   2.69618273,           0.
   1699,   3.65818644,   -8.5451746,           0.
   1700,   3.84172583,  -7.50150919,           0.
   1701,  -10.3800001,  -1.77560127,           0.
   1702,  -18.2455482,   4.87408733,           0.
   1703,   1.47993886,   -4.5778017,           0.
   1704,  -5.70155621,  -3.14604998,           0.
   1705,  -1.65833914,   -1.6127311,           0.
   1706, -0.806465387,  -5.07684278,           0.
   1707,  -14.5223246,   7.05403519,           0.
   1708,  -11.9716558, -0.448625147,           0.
   1709,   1.65598643,  -6.23804426,           0.
   1710,  -15.7260962,   5.62420845,           0.
   1711,  -12.5329618,   8.35923862,           0.
   1712,  -19.9931202,    0.9084782,           0.
   1713,  -12.6428509, -0.706079721,           0.
   1714,  -8.19316006,   2.80390882,           0.
   1715, -0.513953567,  -4.23476839,           0.
   1716,  -1.47550499,  -4.03167439,           0.
   1717,   2.91156268,  -3.80506301,           0.
   1718,   6.37661648,  -7.09277487,           0.
   1719,   3.21774626,  -2.83427811,           0.
   1720,  -11.8329134,  -1.15896153,           0.
   1721,  -11.5765753,   5.65514088,           0.
   1722,  -12.9084702,  0.834742546,           0.
   1723,  -15.5208673,   2.29602504,           0.
   1724,   5.15393496,  -8.21677303,           0.
   1725,  -6.52289534,  -3.01918292,           0.
   1726,  -10.7975473,   4.82799864,           0.
   1727,   7.12814522,  -8.80093193,           0.
   1728,   2.96280789,  -3.24903703,           0.
   1729, -0.175523132,  -7.69843864,           0.
   1730,   -9.6686182,   4.07121658,           0.
   1731,   3.54594159,   -3.0464828,           0.
   1732,  -14.3598194,     8.428339,           0.
   1733,  -2.35639501,   -6.6716609,           0.
   1734,   4.06089163,  -7.80183983,           0.
   1735,   -12.540884,  0.883273542,           0.
   1736,  -12.9157963,    1.2371906,           0.
   1737,  -15.3872766,   3.02797246,           0.
   1738,   4.41350937,  -7.78282833,           0.
   1739,  -14.9487724,    2.6077857,           0.
   1740,  -2.16817641,  -1.85981166,           0.
   1741,   5.34249735,  -5.58956861,           0.
   1742,  -4.22632408, -0.144371033,           0.
   1743,  -1.68029523,   -5.3578167,           0.
   1744,  -7.29380178,   1.12036109,           0.
   1745,  -6.20081472,   1.65408266,           0.
   1746,   6.23648214,  -4.56269026,           0.
   1747,  -9.72414207,  -1.62248909,           0.
   1748,   -15.319046,   5.88040543,           0.
   1749,  -5.96256161,  -2.72579837,           0.
   1750, -0.447981715,  -5.19243288,           0.
   1751,  -11.9554558,   4.92387629,           0.
   1752,  -11.6532726, -0.0535010733,           0.
   1753,  -1.34590828,   -4.7939086,           0.
   1754,  -1.77234435,  -2.98620939,           0.
   1755,    6.2768445,  -7.63600302,           0.
   1756,  -11.1753531, -0.899673641,           0.
   1757,   5.35883093,  -7.83264065,           0.
   1758,  -13.9775972,   6.98452854,           0.
   1759,   2.80350661,  -6.56536818,           0.
   1760,  -7.05118799,  -3.34020758,           0.
   1761,   6.76381111,  -8.51975441,           0.
   1762,   2.72426248,  -4.37531424,           0.
   1763,  -19.4217358,  0.641714513,           0.
   1764,   6.43802452,  -8.30603409,           0.
   1765,  -12.2366934, -0.909267366,           0.
   1766,  -1.02532697,  -1.78735352,           0.
   1767,   1.57195628,  -5.71219158,           0.
   1768,  -8.48858261,   2.25428605,           0.
   1769,  -11.2684364,   4.60385084,           0.
   1770,  0.546526015,  -5.94894886,           0.
   1771,  -3.19104624,   -4.0777874,           0.
   1772,  -3.50864005, -0.746093333,           0.
   1773,  -16.3742199,    3.7647481,           0.
   1774,   6.08389902,  -8.12646389,           0.
   1775,  -5.20893049,   2.27773166,           0.
   1776,  -8.60834312,   3.17184567,           0.
   1777,  -9.03902817,  -1.93686068,           0.
   1778,  -14.7522249,   1.63182592,           0.
   1779,   5.41826868,  -11.9291639,           0.
   1780,   3.26455808,  -4.45471859,           0.
   1781,  -1.84431827,  -4.00304651,           0.
   1782,   2.64546561,  -4.93206453,           0.
   1783,   5.05814695,  -7.58151674,           0.
   1784,   4.00270081,  -6.84381962,           0.
   1785,  -1.43827331,    -2.013623,           0.
   1786,  -14.2801838,   9.13803291,           0.
   1787,  -8.75270367,   3.82588983,           0.
   1788,  -15.2845907,   5.48245907,           0.
   1789,  -14.6426649,   6.05526352,           0.
   1790,   4.16985846,  -2.36214781,           0.
   1791,  -13.6654997,   1.26073694,           0.
   1792,  0.902979791,  -4.89941978,           0.
   1793,   4.87062788,  -6.11141491,           0.
   1794,  -4.43743992,  -3.16295767,           0.
   1795,   6.26529074,  -5.03981781,           0.
   1796,   2.72663546,  -6.03510952,           0.
   1797,  0.477360308,  -5.42965889,           0.
   1798,   6.16532612,  -4.08996201,           0.
   1799,  -1.02268624,  -3.01056099,           0.
   1800,  -11.9126673,  0.241642535,           0.
   1801,  -10.7494164,   -1.0498724,           0.
   1802,  -7.18592787,  -4.09992552,           0.
   1803,  -10.4290323,   4.27970123,           0.
   1804,  -3.96147156,   -1.1511662,           0.
   1805,  -8.60755634,   2.71023655,           0.
   1806,  -8.04588032,   1.38586771,           0.
   1807,  -8.37245274,   3.59967875,           0.
   1808,  -15.3459539,   3.35988736,           0.
   1809,  -8.35213661,  -2.11227727,           0.
   1810,  -6.80463552,  -2.59584379,           0.
   1811,  -10.9484882,  -1.57700276,           0.
   1812,  -6.15517473,  0.952059984,           0.
   1813,   -4.9827199,  -2.88033962,           0.
   1814,  -11.8186808,   4.38611126,           0.
   1815,  -14.1241789,   1.05544484,           0.
   1816,  -3.15615177,  -3.66667962,           0.
   1817,  -16.3208084,   4.14923048,           0.
   1818,   -5.4925952,   1.24176455,           0.
   1819,  -3.93600941,  -3.44243455,           0.
   1820,  0.955554724,  -5.36498499,           0.
   1821,   1.45219755,  -5.23682356,           0.
   1822,   2.11095548,  -5.56059647,           0.
   1823,  -14.1567564,   7.33987856,           0.
   1824,  -2.75365472,  -4.56190491,           0.
   1825,  -4.47983217,  0.325419247,           0.
   1826,  -13.6203079,   6.79052067,           0.
   1827,   5.84199619,  -7.53333282,           0.
   1828,  -5.76664448,   -2.0082798,           0.
   1829,  -12.5921268,   9.02381897,           0.
   1830,  -3.91025472,  -2.86475444,           0.
   1831,  -1.26221108,  -5.18853283,           0.
   1832,  -3.12355018,  -3.35905194,           0.
   1833,  -4.93975115,  -1.98426569,           0.
   1834,  -7.31769991,  -2.91406584,           0.
   1835,   -7.0819068,  -2.16129422,           0.
   1836,  -11.6277199,   3.89045334,           0.
   1837,  -2.74505877,  -4.08267927,           0.
   1838,  -5.84905052,   1.43906748,           0.
   1839,   6.02432203,  -3.65128684,           0.
   1840,   4.59879732,  -7.13433123,           0.
   1841,  -14.2548609,   1.52099991,           0.
   1842,   3.89727807,  -4.38129997,           0.
   1843,  -8.42850018,    4.2745018,           0.
   1844,   5.01486969,  -7.07206106,           0.
   1845,   4.44669533,  -3.26623082,           0.
   1846,  -13.1869221,   1.73422146,           0.
   1847,  -14.0871534,   2.22915769,           0.
   1848,  -10.4708538,   3.56309748,           0.
   1849,   4.81419277,  -5.61548281,           0.
   1850,   5.41421127,  -6.55780935,           0.
   1851,   5.71734142,  -4.22544575,           0.
   1852,  -12.1712475,   0.99841249,           0.
   1853,  -1.21170521,  -2.45892167,           0.
   1854,  -10.9731426,  -0.43132177,           0.
   1855,  -3.94173074, -0.486929744,           0.
   1856,  -3.70520043,  -1.66899097,           0.
   1857,   -7.5299201,   1.68415606,           0.
   1858,  -14.7121935,   3.95768595,           0.
   1859,  -12.5235224,   4.75736189,           0.
   1860,   -8.2003727,  -2.44325542,           0.
   1861,  -10.5048962,  -2.47956347,           0.
   1862,  -8.76155281,   1.58724427,           0.
   1863,  -15.9050512,   4.03008461,           0.
   1864,   -16.701395,   4.65569305,           0.
   1865,  -13.6287374,   7.10502434,           0.
   1866,  -9.05491543,   2.64982867,           0.
   1867,  -15.2356825,   4.97557926,           0.
   1868,  -11.3807945,  0.268372506,           0.
   1869,   7.14819574,  -3.89612222,           0.
   1870,  -5.23731852, -0.320270061,           0.
   1871,  0.104789473,  -6.55992556,           0.
   1872,  -6.53570318,  -1.86500442,           0.
   1873,  -13.6796503,   8.67264748,           0.
   1874,  -13.0582314,   8.67376041,           0.
   1875,  -9.45187092,   3.72516155,           0.
   1876,  -14.0533123,   6.22659206,           0.
   1877, 0.0187843125,  -5.50071383,           0.
   1878,   3.34711909,  -6.49046993,           0.
   1879,   3.21571326,  -5.45791817,           0.
   1880,   6.52827024,  -3.42955613,           0.
   1881,  -9.94093132,   3.48521829,           0.
   1882,  -13.8552198,   8.09439564,           0.
   1883,  -9.64004421,   3.05277729,           0.
   1884,  -12.8313799,   8.09372139,           0.
   1885,  -9.29800224,   1.33184695,           0.
   1886,   3.27778053,   -4.0775032,           0.
   1887,   4.94386721,  -6.59968185,           0.
   1888,  -10.9776468,   3.50512052,           0.
   1889,   3.86678314,  -6.35288763,           0.
   1890,  -3.66032124,   -2.0735786,           0.
   1891,  -7.70378876,  -3.21508956,           0.
   1892,   3.80103803,  -4.96720886,           0.
   1893,  -13.2322845,   6.14058971,           0.
   1894,   4.06175756,  -3.61599755,           0.
   1895,  -14.5024652,   2.89244509,           0.
   1896,  -12.2218294,   1.76548111,           0.
   1897,   -3.2225461,  -1.95374632,           0.
   1898,  -15.1082449,   3.91058969,           0.
   1899,  -8.08823204,  -3.02842164,           0.
   1900,  -11.5765066, -0.700849354,           0.
   1901,  -16.3300705,   3.39959598,           0.
   1902,  -14.5723791,   5.03896189,           0.
   1903,  -13.0848789,   4.69134951,           0.
   1904,  -5.07648039,  -0.66370064,           0.
   1905,  -4.98414898,   0.60217762,           0.
   1906,  -6.04699945,  -1.60251987,           0.
   1907,  -14.1874142,   5.83139229,           0.
   1908,  -7.00153017,  0.239026561,           0.
   1909,   -7.8194766,  0.394478679,           0.
   1910,   5.31953669,  -4.33541441,           0.
   1911,  -2.82100153,  -3.25193429,           0.
   1912,   -15.743187,   4.36348295,           0.
   1913,   3.72797012,  -5.46360159,           0.
   1914,  -13.3607092,   6.68306684,           0.
   1915,  -11.8300772,   1.27512038,           0.
   1916,  -10.9828129,  0.469565481,           0.
   1917,  -8.38624763,  -3.56959558,           0.
   1918,  -4.19959879,  -1.65416002,           0.
   1919,   -9.4155426,   1.97685158,           0.
   1920,  -10.5988808, -0.536497533,           0.
   1921,  -12.8246536,   2.18227673,           0.
   1922,  -13.3576183,   2.56911421,           0.
   1923,   4.21854162,  -5.64394045,           0.
   1924,  -5.80005074, 0.0818763152,           0.
   1925,  -2.57293582,  -2.71983695,           0.
   1926,  -12.8593073,   2.92908859,           0.
   1927,   3.42656541,   -3.5917604,           0.
   1928,  -9.76642799,   -1.0853169,           0.
   1929,  -15.1089077,   4.38359261,           0.
   1930,  -16.0036526,   5.02286386,           0.
   1931,  -15.5254173,   4.68455839,           0.
   1932,  -9.53223419,   2.52879834,           0.
   1933,  -13.2145157,    8.1267395,           0.
   1934,  -5.75555992, -0.465571791,           0.
   1935,  -14.1035519,    3.4289577,           0.
   1936,  -11.4769907,   3.37929893,           0.
   1937,    -13.06674,    6.5457387,           0.
   1938,  -12.6229038,   1.70275521,           0.
   1939,  -13.5865746,   4.16282225,           0.
   1940,   4.42408037,  -4.58354759,           0.
   1941,  -15.5756884,   3.83048463,           0.
   1942,   -14.338151,   5.42504263,           0.
   1943,   -4.3961606, -0.912899733,           0.
   1944,   5.21136045,  -4.05668259,           0.
   1945,  -11.3652372,   1.37319756,           0.
   1946,    3.7490592,  -5.88100767,           0.
   1947,  -8.21681118,   0.72266382,           0.
   1948,  -2.73516178,  -2.30979204,           0.
   1949,  -5.35702848,  -1.67553306,           0.
   1950,  -14.0271778,   4.12076807,           0.
   1951,  -9.87931728,    1.4008919,           0.
   1952,  -8.88047886,  -3.17045999,           0.
   1953,  -10.9885731,  0.792595923,           0.
   1954,  -11.8085985,   2.26766324,           0.
   1955,  -7.20043612, -0.520856202,           0.
   1956,  -11.1152277,  0.110350773,           0.
   1957,   -10.443799,   2.59102082,           0.
   1958,  -8.59840393,  0.409731895,           0.
   1959,  -8.09291363,  -0.55370146,           0.
   1960,  -7.98778343,  -1.50260937,           0.
   1961,  -4.87465191, -0.950083196,           0.
   1962,  -14.1878548,   4.76089478,           0.
   1963,  -10.7042665,  0.448989928,           0.
   1964,  -10.2038755, -0.589921355,           0.
   1965,  -6.37192678, -0.662471771,           0.
   1966,  -12.7922726,   6.44954062,           0.
   1967,  -12.8120527,   3.56520724,           0.
   1968,   -13.588645,   4.62304449,           0.
   1969,   4.98899364,   -4.3168993,           0.
   1970,   5.37343788,  -3.52574277,           0.
   1971,  -11.0730095,   1.04255497,           0.
   1972,   -16.083374,   5.50891924,           0.
   1973,  -9.55765057,  0.794353068,           0.
   1974,   -12.257122,   2.53424501,           0.
   1975,  -10.4718418,   3.02154398,           0.
   1976,  -11.9057465,   2.77005076,           0.
   1977,  -7.70676851, -0.873767912,           0.
   1978,  -10.0476904,   2.41705561,           0.
   1979,  -13.0913982,   7.55790949,           0.
   1980,   -12.561141,    2.6793623,           0.
   1981,    -9.309618, -0.473250091,           0.
   1982,  -12.8540068,   6.91492081,           0.
   1983,  -9.77056026, -0.0977546349,           0.
   1984,  -13.7890501,   5.14661312,           0.
   1985,  -8.32804966, -0.0233250465,           0.
   1986,  -7.82829762,  -1.94407129,           0.
   1987,  -10.8101377,   2.35615015,           0.
   1988,  -12.1304598,   3.65472817,           0.
   1989,  -6.20517874,  -1.15097702,           0.
   1990,  -13.1638203,   5.20404434,           0.
   1991,  -13.2353649,   3.66466093,           0.
   1992,  -5.58188725, -0.982966363,           0.
   1993,  -10.8752794,   1.84889174,           0.
   1994,   4.71937275,  -3.54352546,           0.
   1995,   5.33257627,  -4.70656586,           0.
   1996,  -15.9850092,   5.86559868,           0.
   1997,  -6.95900011, -0.957733035,           0.
   1998,  -10.0476122,  0.406740278,           0.
   1999,  -12.1832676,   5.93762875,           0.
   2000,  -7.29038954,   -1.7037437,           0.
   2001,  -8.11436081,  -1.08155942,           0.
   2002,  -13.1985941,   5.68167448,           0.
   2003,  -13.0362034,    3.2101922,           0.
   2004,   5.33206987,  -5.13109303,           0.
   2005,   5.20215559,  -2.58218169,           0.
   2006,  -11.7094965,   6.16741276,           0.
   2007,  -11.3392801,   2.33006692,           0.
   2008,  -8.70526981, -0.758769572,           0.
   2009,  -13.6161041,   3.76439428,           0.
   2010,   5.80402184,  -3.26415181,           0.
   2011,   -16.550106,   5.58978844,           0.
   2012,  -16.2739563,  -1.32717359,           0.
   2013,  -14.7956352,   15.4189177,           0.
   2014,   5.39609385,  -10.5821362,           0.
   2015,   10.4362755,  -11.0053272,           0.
   2016,  -15.1026669,  -2.29593015,           0.
   2017,   4.77840281,  -1.61868274,           0.
   2018,   -16.220747,   15.7513103,           0.
   2019,  -19.7325516, 0.0587753244,           0.
   2020,     6.264431,  -2.98430705,           0.
   2021,  0.105125986,   2.18858337,           0.
   2022,   4.85074139,   -2.2769537,           0.
   2023,  -18.8288651,   7.90865135,           0.
   2024,   6.73446274,  -2.64795136,           0.
   2025,   4.47925854,   -1.9904778,           0.
   2026,   -19.471056, -0.301350683,           0.
   2027,   5.93206596,  -2.59468937,           0.
   2028,   3.90964127,  -1.07697296,           0.
   2029,  -2.37145114,  -3.14105678,           0.
   2030,  -7.26464558,   6.65078688,           0.
   2031,  -8.16812706,  -6.49159956,           0.
   2032,  -2.01697445,  -7.61875105,           0.
   2033,  -21.4147835,   1.74614275,           0.
   2034,  -18.2917252,   6.04359436,           0.
   2035,   13.6581049,  -8.28986359,           0.
   2036,  -11.4218807,  -4.89702225,           0.
   2037,  -21.9241161,   1.66556942,           0.
   2038,   17.5147266,  -16.1579704,           0.
   2039,   17.1144981,  -16.4161682,           0.
   2040,    9.7206707,  -15.1000996,           0.
   2041,   1.67717171,  -11.6552544,           0.
   2042,  0.107462369,  -10.9119453,           0.
   2043,  -21.5225487,   5.34997511,           0.
   2044,   16.4610443,  -16.0555038,           0.
   2045,  -14.7152805,   11.2930632,           0.
   2046,  -21.3373566,    1.3199991,           0.
   2047,  -20.9318581,  0.888383687,           0.
   2048,  -20.5016575,  0.831869304,           0.
   2049,   5.33921814,  -13.0147457,           0.
   2050,  -9.29730892,   10.2154427,           0.
   2051,  -9.27802658,   8.95832443,           0.
   2052,   17.0480556,  -13.5413532,           0.
   2053,   16.8764305,  -12.6211224,           0.
   2054,  -18.8107433, -0.938255906,           0.
   2055,   10.5936623,  -5.98228455,           0.
   2056,  -1.60370183,  -9.88160515,           0.
   2057,  -8.83606529,  -6.59624529,           0.
   2058, -0.729814231,  -10.2159929,           0.
   2059,   1.71107614,   -10.480999,           0.
   2060,  -12.4272833,   13.0144424,           0.
   2061,  -12.4225988,   12.6382952,           0.
   2062,   16.5093918,   -12.657691,           0.
   2063,  -1.30783534,  -9.79845047,           0.
   2064,  -20.9194355,   1.33372033,           0.
   2065,  -19.8064785,   6.94167805,           0.
   2066,  -20.2947674,   6.27669239,           0.
   2067,  -13.6877089,   11.4733753,           0.
   2068,  -1.92765498,  -9.46938133,           0.
   2069,  -19.0648937, -0.0297698695,           0.
   2070,   -18.482357,  -0.61150986,           0.
   2071,  -17.7560768,  -1.10039961,           0.
   2072,   -11.316679,  -4.33342123,           0.
   2073,  -12.2360134,   -4.1278019,           0.
   2074,  -14.2825184,  -3.00295115,           0.
   2075,   7.91085577,  -4.54138422,           0.
   2076,  -14.3943033,   14.9825039,           0.
   2077,  -9.73648643,   9.93988609,           0.
   2078, -0.258307904,   -9.9855299,           0.
   2079,   14.4889641,  -15.6760483,           0.
   2080,   14.8377686,  -15.1634903,           0.
   2081,   12.7549086,  -15.0472336,           0.
   2082,   5.52215099,  -2.91092205,           0.
   2083,   4.72693014,  -11.0445967,           0.
   2084,   4.09234953,  -1.72668624,           0.
   2085,   3.68670487,  -1.49525893,           0.
   2086,  -2.73867321,  -9.05875492,           0.
   2087,   7.58990526,  -5.00837612,           0.
   2088,  -1.65301251,  -9.01080513,           0.
   2089,  -20.0131054,   5.99063635,           0.
   2090,   16.1670532,  -14.3215923,           0.
   2091,      16.1159,  -13.4892759,           0.
   2092,   16.1043186,  -13.0713253,           0.
   2093,  -14.3752441,   11.0470228,           0.
   2094,   11.1127195,  -6.82484722,           0.
   2095,  -4.79080105,  -7.82344532,           0.
   2096,    -1.216524,   1.90286636,           0.
   2097,   2.77768064,  -1.24572766,           0.
   2098,  -13.9128256,    11.043294,           0.
   2099,   5.97424078,  -12.9006157,           0.
   2100,   1.21151841,  -8.78600597,           0.
   2101,   5.80997849,  -5.09315252,           0.
   2102,   11.5568037,  -8.65194416,           0.
   2103,   16.1373634,  -12.3443174,           0.
   2104,   13.9064751,  -11.0575409,           0.
   2105,   1.62160242, -0.106492832,           0.
   2106,   2.30056787,  -1.40066588,           0.
   2107,  -18.1762428, -0.291523695,           0.
   2108,  -17.0886421, -0.932722032,           0.
   2109,  -16.6859188,  -1.13605607,           0.
   2110,  -18.9959469,  0.782089829,           0.
   2111,  -8.67668247,   7.74686623,           0.
   2112,   11.3646469,  -13.2759838,           0.
   2113,   10.0588398,  -12.9620972,           0.
   2114,   9.09474754,  -12.0688839,           0.
   2115,  -18.0557404,   7.16626263,           0.
   2116,  -13.5107269,  -2.06398606,           0.
   2117,   16.1182556,  -12.6659584,           0.
   2118,   15.6878033,  -14.2798538,           0.
   2119,   15.6219616,  -13.4464445,           0.
   2120,   15.6395741,  -12.9995403,           0.
   2121,   5.11674452,   -3.2189362,           0.
   2122,   4.82579517,  -2.92202783,           0.
   2123,    1.9408083,  -9.50327682,           0.
   2124, -0.196838483,  -9.32228088,           0.
   2125,  -11.6827574,   -3.7158339,           0.
   2126,  -12.4822769,  -3.61755562,           0.
   2127,   -7.9737606,   7.26182461,           0.
   2128,  -19.9980946,   2.40691614,           0.
   2129,   3.11110592,  -1.74818778,           0.
   2130,   6.17663479,  -12.5607595,           0.
   2131,   6.92037344,   -12.847105,           0.
   2132,   12.8166943,  -13.8575039,           0.
   2133,  -13.5551052,   10.5296021,           0.
   2134,  -13.1067066,  -2.05330944,           0.
   2135,  -14.3560514,  -1.37607908,           0.
   2136,   -17.206007, -0.309508771,           0.
   2137,  -17.9594383, -0.00801764056,           0.
   2138,  -18.3588867,  0.530087173,           0.
   2139,   4.98227358,  -3.80785251,           0.
   2140,   13.7747869,  -11.5692902,           0.
   2141,   10.2129726,  -12.5827599,           0.
   2142,   8.80658913,   -11.699625,           0.
   2143,   9.14740753,  -11.3541002,           0.
   2144,   11.4835997,  -9.15087128,           0.
   2145,   -10.674365,    8.5265398,           0.
   2146,  -8.83710957,   7.35441589,           0.
   2147,   11.0115595,  -9.13171768,           0.
   2148,  -10.1399403,  -3.36416554,           0.
   2149,  -9.63650322,  -3.41524339,           0.
   2150,   5.83223724,  -5.56294918,           0.
   2151,  -3.79420686,  -7.23064423,           0.
   2152,  -1.11969352,  -8.58838081,           0.
   2153,  -3.16485572,  -7.56284571,           0.
   2154,  -12.0393085,   9.98693275,           0.
   2155,  -12.7885008,   9.77295876,           0.
   2156,   15.2908907,  -13.8660593,           0.
   2157,   4.15953445,  -2.98805404,           0.
   2158,   13.8551617,  -15.0773096,           0.
   2159,   3.85088849,  -2.72380924,           0.
   2160,  0.921259344, -0.136098906,           0.
   2161,   6.62364149,  -12.2769947,           0.
   2162, -0.157652944,  0.583537042,           0.
   2163,  -7.94162512,  -6.14583158,           0.
   2164,  -8.53864479,  -5.66544199,           0.
   2165,  -19.2553196,   1.97227919,           0.
   2166,   3.22543573,  -2.27971578,           0.
   2167,   5.87395716,  -11.7930822,           0.
   2168, -0.523765028,  -9.77277756,           0.
   2169, -0.155755058,  -8.18659306,           0.
   2170,  -13.1941156,   9.92740631,           0.
   2171,  -7.94355106,   6.55768633,           0.
   2172,  -4.29324198,   4.06487656,           0.
   2173,  -19.4561749,   2.40707326,           0.
   2174,   1.93829978,  -2.53223491,           0.
   2175,   13.6171074,  -12.0383196,           0.
   2176,   10.9587975,  -12.2053938,           0.
   2177,   12.1828527,  -12.1535921,           0.
   2178,   1.45232272,  -2.49966764,           0.
   2179,   5.47367811,  -9.58246517,           0.
   2180,   8.20322704,   -11.669138,           0.
   2181,   13.9207096,  -13.6805096,           0.
   2182,   10.5786858,  -8.67438507,           0.
   2183,   10.5339174,  -7.91474771,           0.
   2184,   4.66311121,  -4.14936686,           0.
   2185,   12.4412174,  -10.0364265,           0.
   2186,   12.9232216,  -11.4584303,           0.
   2187,  -1.30258095,  0.307792842,           0.
   2188,   5.37409401,  -6.07458973,           0.
   2189,  -3.03380513,  -6.34263611,           0.
   2190,  -12.8310509,  -1.18239069,           0.
   2191,   3.79526043,  -9.22580051,           0.
   2192,   4.82795382,  -5.13434458,           0.
   2193,   12.6847525,  -12.9901304,           0.
   2194,  -17.0202961,   6.86550617,           0.
   2195,  -4.36462736,   3.30530453,           0.
   2196,   14.3325853,  -13.6487026,           0.
   2197,   12.9546804,  -11.8075943,           0.
   2198,   10.2144079,  -12.2350922,           0.
   2199,  -5.05560541,  -6.71454287,           0.
   2200,   3.80992627,  -3.31726503,           0.
   2201,  0.970877349, -0.657835364,           0.
   2202,  -11.9308672,   8.74531364,           0.
   2203,  -12.3207436,   8.82392693,           0.
   2204, 0.0626142472,  0.093647778,           0.
   2205,   7.08175373,   -5.8255558,           0.
   2206,   2.94432402,  -9.14145851,           0.
   2207,   7.63288116,  -11.6770697,           0.
   2208,   10.1151352,  -8.26397419,           0.
   2209,  -13.1717997,   9.21152687,           0.
   2210,   8.49496746,  -10.6701517,           0.
   2211,  -15.1500912, -0.849820197,           0.
   2212,  -16.8904362, 0.0149051165,           0.
   2213,   -15.813448, -0.405963093,           0.
   2214,  -3.17724776,  0.775744557,           0.
   2215,   5.64487982,  -9.00914097,           0.
   2216,  -16.5273399,    6.8990078,           0.
   2217,   4.38877344,  -8.91397667,           0.
   2218,   12.1160069,  -11.6957064,           0.
   2219,   12.9451323,  -12.5807095,           0.
   2220,   12.4169512,  -11.1177959,           0.
   2221,  -9.25819397,   6.50935459,           0.
   2222,   4.47658062,  -6.68802691,           0.
   2223,  -15.5234575,    7.4331522,           0.
   2224,  -8.50529575,  -2.77060127,           0.
   2225,  -8.92681122,  -3.86918998,           0.
   2226,  -12.6029091,   7.30069637,           0.
   2227,   6.53723621,  -9.92728806,           0.
   2228,  0.577304661,  -2.18735814,           0.
   2229,   7.06822443,  -11.8883743,           0.
   2230,  -12.1030769,   8.39622593,           0.
   2231,    3.3082366,  -3.31005812,           0.
   2232,  -16.0877705,   7.44247484,           0.
   2233,   10.2069216,  -9.09444332,           0.
   2234,  -15.0356903,   9.16365814,           0.
   2235,  -13.7190437,   9.68318558,           0.
   2236,   4.31074286,  -5.07823658,           0.
   2237,  -14.0379486, -0.328667939,           0.
   2238,  -7.64884329,  -5.91084146,           0.
   2239,   7.56139326,  -11.0702162,           0.
   2240,   5.29725981,  -8.79695702,           0.
   2241,  -7.96072865,  -5.55689478,           0.
   2242,   8.36441898,  -10.0196342,           0.
   2243, -0.946903944,  -7.21544743,           0.
   2244, -0.386442691,  -7.23411512,           0.
   2245,  -6.18505239,   5.03726053,           0.
   2246,  -16.5537262,  0.237256154,           0.
   2247,   4.94636345,  -8.62766933,           0.
   2248,  -8.17761993,   5.42040825,           0.
   2249,   -10.203845,   6.06120348,           0.
   2250,  -12.5360804,   6.67893028,           0.
   2251,  -9.16041374,  -1.44125891,           0.
   2252,  -13.2207174,   7.07778311,           0.
   2253,   -12.747365,   7.81469059,           0.
   2254,   6.62292957,  -8.88119221,           0.
   2255,    5.5105505,  -8.39870834,           0.
   2256,  -17.1359367,   2.44485044,           0.
   2257,  -16.3183327,   1.13402593,           0.
   2258,   9.67382622,   -8.3007412,           0.
   2259,   7.09620285,  -10.3060646,           0.
   2260,  -5.24746704,  -6.06394005,           0.
   2261,  -15.1389761,  -0.30307135,           0.
   2262,   4.20077324,  -7.29602957,           0.
   2263,  -12.9576502, -0.0859011784,           0.
   2264,  -14.8227015,   7.39036751,           0.
   2265,  -15.1862049,   7.03748703,           0.
   2266,  -16.6114063,   5.11395264,           0.
   2267,  -8.50289726,  -1.70315039,           0.
   2268,   9.84719276,  -9.15794754,           0.
   2269, -0.311406344,  -1.23506987,           0.
   2270, -0.115946725,  -2.25614715,           0.
   2271,  -17.6162453,    5.2113657,           0.
   2272,  -14.1106148,   8.74088383,           0.
   2273,  -5.30412102,   3.36710024,           0.
   2274,  -12.0713291,   5.45450258,           0.
   2275,  -7.40400743,   4.83386946,           0.
   2276,   5.89558029,  -7.04571104,           0.
   2277,   9.34331703,  -8.17542458,           0.
   2278,   7.52098846,  -10.1901531,           0.
   2279,   7.99807405,  -9.51867485,           0.
   2280,  -9.23551369, -0.946151495,           0.
   2281,  -1.82005215,  -1.21042562,           0.
   2282,  -16.7636833,   2.97264171,           0.
   2283,  -16.2796383,   1.86634088,           0.
   2284,   -4.8291173,   2.02497625,           0.
   2285,  -3.39962578, -0.358792067,           0.
   2286,  -3.85335684,  0.108564384,           0.
   2287,  -3.32021427,  -1.15023482,           0.
   2288,  -12.7487564,   6.16113615,           0.
   2289,  -14.8278866,   6.70637846,           0.
   2290,  -15.0941448,   6.32051802,           0.
   2291,  -11.4437752,   5.13166046,           0.
   2292,   -2.2868681,  -4.52049828,           0.
   2293,  -16.1969833,   4.55744314,           0.
   2294,  -12.4879732,  0.438239008,           0.
   2295,  -4.24114799,  -4.88445091,           0.
   2296,    1.1077373,  -3.96363664,           0.
   2297,    2.6654861,  -5.49050522,           0.
   2298,  -15.5747919,   1.41937554,           0.
   2299,   -12.678422,   5.76563549,           0.
   2300,   3.23863006,   -7.6249032,           0.
   2301,  -3.69411516,  -4.49153662,           0.
   2302,   8.84384155,  -8.24615765,           0.
   2303,  -15.1451616,  0.321117252,           0.
   2304,  -12.0642576,   0.62841773,           0.
   2305,   3.57351041,  -7.87281942,           0.
   2306, -0.541945457,  -2.56201243,           0.
   2307,  -5.62136269,   2.46721745,           0.
   2308,  -6.01978827,   2.64126015,           0.
   2309,  -6.14563751,   3.08697391,           0.
   2310,  -6.95671463,   4.55827665,           0.
   2311,  -13.9306736,  0.697934926,           0.
   2312,  -8.84243584,   5.25967312,           0.
   2313,  -1.78377295,  -4.90730667,           0.
   2314,   -9.7734108, -0.575069964,           0.
   2315,  -15.7442617,   6.20428133,           0.
   2316, -0.925769329,  -6.04402208,           0.
   2317,  -14.4468899,   6.43236351,           0.
   2318,   5.44835854,  -7.48239708,           0.
   2319,  -8.82380486, -0.287437856,           0.
   2320,  -4.58897543,  -4.34206533,           0.
   2321,  -16.1498241,   2.38043284,           0.
   2322,  0.487114817,  -4.37399197,           0.
   2323, -0.642175376,  -1.56073678,           0.
   2324,  -7.48667765,  -1.26491499,           0.
   2325,  -5.16831827,   1.61818397,           0.
   2326,  -13.8815212,   6.60735464,           0.
   2327,   7.82687092,  -8.36097813,           0.
   2328,  -10.4307804,   5.10032701,           0.
   2329,  -2.29325223,  -4.04152918,           0.
   2330,  -11.5745716,  0.519776106,           0.
   2331,  -10.8097572, 0.0132457847,           0.
   2332,  -1.83813667,   -4.4604311,           0.
   2333,  -6.41481256,  -4.10566759,           0.
   2334,  -6.27667475,   2.27331114,           0.
   2335,  -1.17308056,  -5.53214884,           0.
   2336,  -6.67352962,   2.51127791,           0.
   2337,  -16.0263481,   3.76336956,           0.
   2338, -0.103525266,  -4.91467905,           0.
   2339, -0.570961297,  -4.70119095,           0.
   2340,  -11.7092876,  0.858975708,           0.
   2341,   -6.0346117,  -4.42966127,           0.
   2342,   -10.129159, -0.0866100788,           0.
   2343,  -9.38088322, -0.044174131,           0.
   2344,  -15.8204994,   3.07436752,           0.
   2345,  -15.8265238,   2.43296909,           0.
   2346,  -15.8308859,   2.26118279,           0.
   2347,  -15.1713352,   2.19590902,           0.
   2348,  -14.8684273,   2.04196453,           0.
   2349,  -13.6112137,  0.840866446,           0.
   2350,  -14.7027121,   1.28892255,           0.
   2351,   -9.4142065,   5.28839636,           0.
   2352,   -5.0994978,  -4.65901756,           0.
   2353,   -1.8331728,  -2.25007129,           0.
   2354,  -14.9705772,   5.30083466,           0.
   2355,  -13.6532431,   6.09335566,           0.
   2356,  -2.13576341,  -2.54540229,           0.
   2357,  -3.68147993,  -1.32406425,           0.
   2358,  -4.87452507, -0.101573832,           0.
   2359,  -12.2163382,   1.33712864,           0.
   2360,  -11.2059574,   0.49001497,           0.
   2361,   -10.386693,  0.432139397,           0.
   2362,  -2.74986744,  -3.65133643,           0.
   2363,  -1.77161193,  -3.53837919,           0.
   2364,   -1.4010663,  -4.38030767,           0.
   2365,  -4.26544666,  -3.49555492,           0.
   2366,  -8.03268528,   3.35320282,           0.
   2367,  -11.3601742,   1.00988996,           0.
   2368,  -1.59729099,   -2.5658536,           0.
   2369,  -14.8464203,   4.67667246,           0.
   2370,  -9.72163105,  0.351448894,           0.
   2371,  -9.45126152,  0.282332689,           0.
   2372,  -9.21694851,    0.5277614,           0.
   2373,  -13.0853653,   4.17527866,           0.
   2374,  -15.6856813,   2.19336581,           0.
   2375,  -6.90875244,   2.09520292,           0.
   2376,  -13.2739954,   1.26756275,           0.
   2377,  -14.4946003,   1.92665029,           0.
   2378,  -15.4134531,   2.67571235,           0.
   2379,   -14.658638,   2.30478883,           0.
   2380,  -3.03785205,  -2.87203121,           0.
   2381,  -3.40224814,  -3.15241718,           0.
   2382,   -10.176177,   4.85328293,           0.
   2383,  -15.2238417,   3.66301847,           0.
   2384,  -7.24901152,  0.617215097,           0.
   2385,  -5.72652531,  0.928756416,           0.
   2386,  -6.53257895,   1.23626113,           0.
   2387,  -5.09534121,  -1.28816187,           0.
   2388,  -10.7023296,  0.873651087,           0.
   2389,  -9.95244408,  0.895280123,           0.
   2390,  -8.28278828,   3.10334945,           0.
   2391,  -8.06212521,   2.43952966,           0.
   2392,  -9.84189034,   4.18793869,           0.
   2393,  -11.9298515,   3.24037504,           0.
   2394,  -12.9094267,   1.56985426,           0.
   2395,  -11.7988281,   1.79416788,           0.
   2396,  -6.63067484,   0.59030515,           0.
   2397,  -6.40657473,  0.330812812,           0.
   2398,  -5.99758434,   0.49121204,           0.
   2399,  -12.5096684,   3.30842662,           0.
   2400,  -14.3049383,   2.54081225,           0.
   2401,  -7.87263107,   2.05245447,           0.
   2402,  -8.49086094,   1.13531792,           0.
   2403,  -9.98845482,   4.00507832,           0.
   2404,  -13.9255209,    2.6852057,           0.
   2405,  -10.3682518,   1.40972853,           0.
   2406,   -10.867897,   1.32860267,           0.
   2407,  -11.3994799,   2.85794735,           0.
   2408,  -8.29155922,   1.81202984,           0.
   2409,  -14.9877691,   3.30133009,           0.
   2410,  -14.8866091,   3.57514334,           0.
   2411,  -14.7001781,   3.07214046,           0.
   2412,  -14.6615858,   3.34023118,           0.
   2413,   -10.399291,   1.95835483,           0.
*Element, type=S3
 1, 1282, 1205,  135
 2, 2199, 1238, 1052
 3, 2198, 2141, 1415
 4, 2398,  247, 1924
 5, 2365, 1819, 1687
 6, 1635, 1586,  308
 7, 1482, 1417, 1337
 8, 1758, 2326,  163
 9, 1730, 2403, 2392
10, 1794, 2365,  336
11, 2077, 1392,  936
12,  974,  362,  879
13,  977,  442,  905
14,  980, 1129, 1024
15, 2110, 1250, 1067
16,  948,  320, 1019
17, 1107, 1081,  201
18, 2146, 1155, 1399
19, 2128,  238, 1171
20, 2163, 2238,  381
21, 1384, 1211, 1342
22, 1323, 1245,  287
23, 1300,  388, 1218
24, 1345, 1289, 1124
25, 2203, 1829,  124
26, 1338, 1184, 1196
27, 1507,  245, 1504
28, 1614, 1551, 1537
29, 2166, 1635, 1680
30, 1996, 1710, 1972
31, 1729, 1430, 2244
32, 2339, 1706,  354
33, 1786, 1152, 1188
34, 2311, 2349, 1661
35,  248, 2384, 1744
36, 2318, 1757, 1783
37, 2359, 1915, 1852
38, 1581, 1905,  247
39, 1893, 2355,  162
40, 1883,  211, 1881
41, 2412, 2409, 2410
42, 1897,  313, 1890
43, 1947,  249, 1909
44, 1969, 1944, 1910
45, 1946, 1913, 1923
46, 2413, 1978,  230
47, 2001, 1959, 1977
48, 2060,  148,  832
49, 2089, 1004, 1098
50, 2098, 2093,  934
51, 1171,  238, 1234
52, 2190,  298, 1388
53, 2225, 1220, 1510
54,  427, 2233, 1290
55, 1357, 2243, 1352
56, 1409, 2246, 1175
57, 2277, 1369, 2258
58, 2279,  429, 1587
59, 1761, 1727, 2254
60, 2278, 1530, 1466
61, 2303,  255, 1488
62, 1233, 2310, 1334
63, 2315,  164, 1670
64, 2382, 2328,  174
65,  189, 1192, 1232
66, 2351, 1552,  173
67,  358, 2352, 1478
68, 2374, 1723, 1525
69, 2377, 2348, 2379
70, 1870,  270, 2358
71, 2404, 1847, 2400
72, 1976,  213, 2393
73, 1987, 2413, 1993
*Element, type=S4R
  74,  621,  768,  853,  620
  75,  138,    6,  513,  622
  76,  622,  513,    7,  793
  77,  915,  768,  845,  946
  78, 1017, 1051,  121,  984
  79, 1553, 1636, 2223,  113
  80, 2265, 1670, 1561, 2223
  81, 1710, 1748, 1788,  179
  82,  178, 2354, 1788, 1748
  83,  215, 1737, 1808, 2409
  84, 1525, 1723, 2347, 1582
  85,  256, 1634, 1566, 1495
  86, 2261, 1488,  278, 1322
  87,  301, 1291, 1215, 1153
  88, 1153, 1244, 1080,  301
  89,  708,  822,  600,   90
  90,  819,  710,   88,  599
  91,  822,  894,  968,  344
  92,  625,  511,    5,  620
  93,  620,    5,  512,  621
  94, 1120,  929,  858,  984
  95,  114, 1404, 1346, 1285
  96, 2216, 1285, 1346, 1459
  97, 1930, 2266, 2011, 1972
  98, 2293, 1817,  198, 1864
  99, 2337,  216, 1901, 1773
 100, 1515, 1449,  236, 2256
 101, 1321, 1363,  257, 1243
 102, 1175, 2246, 2212, 1115
 103, 1074, 2109, 2108,  280
 104,  324,  973,  856,  820
 105,  820,  708,   90,  601
 106,  705,  712,  603,   92
 107,  823, 1121, 1135,  712
 108,  971, 1042, 2071,  874
 109, 1115, 1041, 1176,  257
 110, 1364, 1321, 1243, 1310
 111, 2256, 1622, 2282, 1515
 112, 1613, 1562, 1654,  217
 113, 1610,  199, 1653, 1689
 114,  165, 1494, 1441, 1347
 115, 1240,  114, 1285, 2194
 116,  980, 1024,  119,  864
 117,  980,  864, 1023,  120
 118,  510,  783,  624,    3
 119,  623,    4,  511,  625
 120,  753,  754,  841,  851
 121,  926,  751,  801,  150
 122,  801,  751,  750,  149
 123,  747,  748,  835,  151
 124,  520,   12,  748,  747
 125,  834,  521,   13,  522
 126,   12,  521,  834,  748
 127,  791,  757,  703,  844
 128,   14,  523,  757,  154
 129,    9,  516,  795,  750
 130,   10,  518, 2018,  637
 131,  747, 2018,  519,  520
 132,   15,  525,  758,  153
 133,  743,  148,  833,  746
 134,  910, 1034,  965, 2067
 135,  140, 2098, 2067,  965
 136, 1101, 1287, 1190, 2133
 137, 2209, 1349, 1829, 1874
 138,  110, 1711, 2230, 1674
 139, 1982, 1937, 1914, 2252
 140, 2002, 1990, 1984,  177
 141, 1859,  194, 2373, 1903
 142, 2003, 1967, 2399, 1926
 143, 2376,  254, 2349, 1791
 144, 2263,  276, 1713, 1445
 145,  948, 1019,  870,  343
 146,  710,  713,  598,   88
 147,  596,   87,  709,  714
 148,   87,  597,  818,  709
 149,  710,  961,  821,  713
 150,  852,  818,  713,  821
 151,  147,  926,  833,  891
 152,  146,  912,  744,  967
 153,  832,  745,  744,  912
 154, 1463, 1556, 1522,  135
 155, 1591,  125, 1638, 1674
 156, 1573, 1637, 2226,  110
 157, 2006, 1999,  161, 1697
 158, 1769, 1814, 1751, 2291
 159, 1888, 1936, 1836,  193
 160, 1974, 1976, 1954,  232
 161, 1896, 2359,  253, 1938
 162, 1800,  276, 2294, 2304
 163, 1765, 1720, 1678,  298
 164, 1571, 1293, 1225, 1678
 165, 1219, 1160, 1068, 1293
 166, 1311, 2072,  877, 2125
 167,   86,  596,  714,  384
 168,  774,  716,   85,  595
 169,   84,  594,  707,  715
 170,  778,  382,  950, 2057
 171,  956,  381, 1027,  896
 172, 1097,  380, 1174, 1000
 173, 1339, 1292, 1313, 1286
 174,  376, 1593, 1542, 1666
 175, 1544, 1595, 1696, 1656
 176, 1594, 1489, 1544, 2316
 177, 1668, 1612, 1709,  372
 178, 1668, 1759, 1624,  394
 179, 1878,  371, 1946, 1889
 180, 2188, 1850, 1887, 1793
 181, 1652, 1630,  368, 1607
 182, 1535, 1607, 1485,  367
 183, 1447, 1354, 1419, 1355
 184, 1314, 1143, 1216, 1146
 185,   40,  723,  721,  559
 186,  723,   40,   41,  725
 187,  560,  824,  725,   41
 188,  385,   42,   43,  726
 189,  561,  404,  726,   43
 190, 1223, 1163, 1191,  405
 191, 2035,   44,  562,  722
 192, 1078, 2035,  722,  424
 193,  904,  977,  905,  847
 194, 1047,  441,  990, 2104
 195, 1114, 1558, 1059,  458
 196,  474, 1184, 1338, 1407
 197, 1248, 2080, 1108, 1183
 198,  989,  498, 1108, 2079
 199,  504,  678,  760,  982
 200,  738,   57,   58,  830
 201,  505,  759,  738, 1071
 202,  574,  737,  830,   58
 203,  507,   59,   60,  742
 204,   61,  727,  732,  575
 205,  727,  500,  901,  732
 206,  730,  826,  500,  727
 207,  728,   62,   63, 2040
 208,  728, 2040,  770,  501
 209,  490,  884,  957, 1453
 210, 2113, 1453, 1040, 1343
 211, 1484,  463, 1518,  462
 212, 1528,  427, 1416, 1455
 213,  407, 1369, 1294, 1049
 214, 1049, 1218, 1146,  387
 215,  388, 1314, 1146, 1218
 216,   18,  529,  646,  967
 217, 1281, 1205,  142,  799
 218,  529,  530,  648,  646
 219,  648,  143,  799,  646
 220,   19,  531,  647,  871
 221,  136, 1392, 2077,  991
 222, 1425, 2145, 1479,  125
 223, 1198, 1425, 1386,  136
 224, 1394, 1521, 1556, 1463
 225, 1205, 1281, 1375,  135
 226,  531,  532,  649,  647
 227, 2050,  649,  906,  137
 228,   20,  533,  630,  906
 229, 1142, 1309,  923, 2111
 230, 1344, 1374, 1302,  107
 231, 1547,  159, 2249, 1606
 232, 1547, 1503, 1410,  159
 233, 1410, 1503, 1437,  108
 234,  108, 1437, 1376, 1264
 235,  533,  534,  633,  630
 236,  868,  633,  635,  128
 237,  789,  855,  106,  787
 238,  632,  787,  128,  635
 239,  156, 2030,  918,  928
 240,  171, 1200, 1112, 1298
 241, 1396, 2310,  189, 1327
 242, 1396, 1468,  190, 1379
 243, 1578, 1527, 2336, 2375
 244,  248, 1744, 1692, 2386
 245, 1997, 2324, 1977, 1955
 246,  338, 1760, 1725, 1677
 247, 1384,  339, 1802, 1387
 248, 2238, 2241, 1230, 1122
 249, 2163, 2031,  950,  992
 250, 2164, 1159, 2241,  992
 251, 1342, 1319, 2225, 1917
 252,  317, 1834, 1891, 1899
 253, 1777, 2267, 1809,  318
 254, 1977, 1959,  272, 1955
 255, 1806,  249, 1947, 2402
 256, 1768, 2408, 1862,  229
 257, 1805, 1776, 2390, 1714
 258, 1843,  190, 1807, 1787
 259, 1413, 2248, 1497, 2312
 260, 1413, 1382, 1371, 2248
 261,  855, 1208, 2127,  106
 262,  923,  868,  128,  997
 263,   21,  535,  632,  635
 264,   22,  537,  662,  631
 265,  804,  662,  656,  794
 266,  170, 1298,  909, 1012
 267,  188, 1232, 1192, 1104
 268, 2334,  227, 2375, 2336
 269, 2386, 1745, 1838, 1812
 270,  294, 1989, 1906, 1872
 271, 1828,  316, 1872, 1906
 272, 1401, 1332, 1305,  359
 273, 1224,  379, 1174,  380
 274,  657,  656,   23,  538
 275,  657,  155,  794,  656
 276,  539,   25,  661,  658
 277,  169,  661,  659,  786
 278,  981,  205, 1062,  999
 279,  224, 1378, 1206, 1123
 280, 1378,  224, 1476,  225
 281,  246, 1640, 1685, 1825
 282,  292, 1943, 1804, 1918
 283, 1804, 2357, 1856, 1918
 284, 1598,  336, 2365, 1687
 285, 1339, 1431,  377, 1292
 286, 1554, 1431, 1339,  378
 287, 1277,  378, 1238, 2260
 288, 1402, 1478, 1385, 1277
 289, 1614, 1537,  337, 1659
 290, 1870, 1904, 1992, 1934
 291, 1905, 1825, 2358,  270
 292, 1581, 1529, 1426, 1905
 293, 1254, 1307,  206, 1136
 294, 1156, 1249, 1066,  187
 295,  169,  940,  865,  843
 296,   24,  539,  658,  660
 297,  659,  540,   26,  615
 298,  541,  666,  615,   26
 299,  185,   27,   28,  675
 300,  675,   28,  542,  665
 301, 1028,  975,  782,  842
 302, 1608, 1340, 1405,  995
 303, 1380, 1203, 1251,  267
 304, 1584,  266, 1308, 2281
 305, 1705, 1785, 2353, 1740
 306, 1925, 2029, 1911, 2380
 307, 1672,  354, 1753, 2364
 308,  376, 1666, 1743, 1686
 309, 1666,  355, 2313, 1743
 310, 1487, 1592, 1542,  377
 311, 1666, 1542, 1592,  355
 312, 1771, 1837, 1824,  356
 313,  291, 1643, 1683, 1897
 314, 1481,  267, 1533, 1583
 315, 1380, 1428, 1505, 1493
 316, 1199, 1270, 1506, 1507
 317, 1123, 1106, 1029, 1199
 318,  185,  675,  828,  781
 319,  666,  186, 1147,  615
 320,  878,  665,  203,  782
 321,  203,   29,  543,  667
 322,  667,  686,  767,  842
 323,  222,  872,  945,  767
 324,  985, 2204, 1039, 2162
 325, 1116, 2269, 1222, 1177
 326, 2323, 2269, 1324, 1381
 327, 1532, 1473,  332, 1616
 328, 1616, 1715, 1672,  333
 329,  375, 1706, 1750, 1660
 330, 2339, 2338, 1750, 1706
 331,  544, 2021,  686,   30
 332,  813,  886,  697,  688
 333,  890,  892,  964,  985
 334, 1116, 1026, 1178,  288
 335, 1245, 1367, 1324,  288
 336, 1604, 1442, 1477,  331
 337, 2322, 1657, 1792,  353
 338,  373, 1770, 1797, 1820
 339,  353, 1797, 1877, 2338
 340, 1438,  696,  262,  831
 341,  694,   33,  550,  700
 342,  700,  887,  284, 2028
 343,  285,  817, 2028, 2085
 344,  331, 1534, 1615, 2296
 345, 1534,  331, 1477, 1412
 346, 1429, 1383, 1279,  286
 347,  263, 1372, 1280, 1172
 348,  700,  550,   34,  887
 349,  551,  698,  887,   34
 350,  698,  692,  816, 2017
 351, 1845, 1994,  328, 1894
 352, 1910, 1851,  348, 1995
 353, 1849, 1793,  370, 1923
 354, 1995,  348, 2101, 2004
 355, 1913, 1879,  350, 1892
 356, 1892, 2236, 1923, 1913
 357, 2157, 1845, 1894, 2200
 358, 1543, 2084, 2025, 1790
 359,  552,  692,  698,  551
 360, 1433, 1351,  367, 1485
 361,  557,  699,  701,   37
 362,  773,  687,  701, 1356
 363,  720, 1119, 1139,  702
 364,   38,  720,  702,  558
 365,  345,  699,  702, 1139
 366,  558,  702,  699,  557
 367, 1304, 1295, 1351,  346
 368, 1295, 1304, 1246,  366
 369,  555,  815,  689,   36
 370, 1356,  701,  699,  345
 371, 1351, 1433, 2087,  346
 372, 1630, 1695, 1564,  368
 373,  347, 1795, 1746, 1693
 374, 1851, 1798, 1746,  348
 375, 1869,  325,  875, 1625
 376,  875,  325,  773, 2075
 377,  559,  721,  724,   39
 378,  423,   45,   46,  952
 379,  952,   46,  563,  650
 380,  802,  654,  655,  876
 381, 1046,  986,  472, 1077
 382, 1077, 2120, 1189, 1046
 383, 1056, 1148, 1248,  486
 384,  982,  996, 1057,  504
 385,  958, 2039,  677, 2044
 386, 2038,  676,  618,  617
 387,  676, 2038, 2039,  958
 388,  876,  655,  652,  457
 389, 2053,  653,  471,  756
 390, 2091,  903,  938,  485
 391,  785,  495,  935,  859
 392,  765,  503,  907,  988
 393,   49,  653,  651,  565
 394,  756,   50,  567,  644
 395,  484, 2052,  643,  645
 396,   52,  684,  645,  568
 397,  617,  618,   53,  570
 398,   64,  502, 2040,   63
 399,  502,   64,  577,  731
 400, 1111,  941,  479, 1179
 401, 1512, 1465, 1391, 2210
 402, 1688, 2242,  429, 2279
 403, 1536, 1458,  428, 1618
 404, 1418, 1355, 1300, 1483
 405,  389, 1447, 1355, 1418
 406,   65,  729,  731,  577
 407,  900,  731,  729,  492
 408,  729,  733, 1085,  492
 409, 2131, 1021, 1045,  933
 410, 1166, 2229, 1255, 1088
 411, 2229, 1312, 2207, 1255
 412, 2278, 2259, 1645, 1587
 413, 1727, 1620, 1664,  430
 414, 1498, 1597, 1548,  389
 415, 1607, 1535, 1548,  390
 416,   66,  733,  729,   65
 417,  493,  810,  668,  807
 418, 2099,  850,  805,  809
 419,  937, 1010, 2167, 1075
 420, 1151, 1213,  449, 1288
 421, 1427,  431, 1480, 2227
 422, 1761, 1764, 1671,  410
 423, 1671, 1755, 1718,  390
 424, 1630, 1652, 1684,  369
 425,  579,  494,  668,   67
 426,  619,   68,   69,  672
 427,  809,  619,  672, 2049
 428,  467, 1007,  942,  873
 429, 1259, 1444, 2014, 1202
 430, 1335, 1259,  450, 1403
 431, 2247, 1724, 2255, 2240
 432, 1757, 2318, 1827,  411
 433, 1887, 1844, 1840, 2222
 434,  580,  670,  672,   69
 435,   70,  775,  670,  580
 436,  873,  919,  979,  467
 437,  979,  468, 1036, 1099
 438, 1471, 1499, 1403,  450
 439, 1499, 2191, 1546, 2217
 440, 1700,  393, 1784, 2262
 441, 1878, 1889, 1784,  393
 442,  581,  483,  775,   70
 443,   72,  671,  673,   71
 444,  469,  808,  671,  669
 445,  880,  808,  469,  943
 446, 1054, 1145, 1210, 1662
 447,  414, 1411, 1359, 1368
 448, 1596, 1501,  394, 1624
 449,  582,  669,  671,   72
 450,  943, 1061,  452, 1008
 451, 1209, 1261, 1145,  452
 452,  434, 1370, 1359, 1316
 453, 1550, 1496,  395, 1612
 454, 1665, 1709, 1612,  395
 455,   74,  470, 2041,   73
 456,  470,   74,  583,  674
 457,  674,  583,   75, 2042
 458,  436,  959,  917, 2124
 459, 1315, 1207, 1162,  416
 460, 1496, 1545, 1601,  395
 461, 1665, 1632, 1770,  373
 462,  664,  663,  584,  585
 463, 1048,  881, 2063,  437
 464, 1195, 1048,  437, 1173
 465, 1352, 1430, 1283,  417
 466, 1770, 1632, 1871,  374
 467,  456,  616,   77,  586
 468,  734,  456,  586,   78
 469,  438, 1093, 1137, 2088
 470,  806,  616,  456,  839
 471,  616,  806, 2056,  455
 472,  839,  456,  734,  837
 473,  790,  663,  664, 2058
 474,  735,  736,   79,  587
 475,  837,  734,  736,  439
 476,  902,  983, 1043, 2086
 477, 1043,  419, 1076, 1093
 478,  397, 1733, 1696, 1595
 479,  420,  889,  777, 2095
 480, 2151, 1247,  398, 1169
 481, 1247, 1313, 1292,  398
 482,  400,  920,  963, 1000
 483,  704,  848,  893,  422
 484,  403,  706,  592,  593
 485,  883,  706,  403, 2057
 486,  707, 1025,  778,  715
 487,  421,  739,  740,  792
 488,  740,  739,  589,  590
 489,  739,  741,   81,  589
 490,  978,  970, 2095,  777
 491,   80,  588,  755,  440
 492,  440,  889,  972,  735
 493,  716,  707,  594,   85
 494,  384,  774,  595,   86
 495,  641,  642,  604,   93
 496,  857, 2070, 2054,  796
 497,  258, 2138, 1250, 1263
 498, 1250, 2110, 1336, 1263
 499, 1432,  199, 1486, 1330
 500, 1306, 1252,  182, 1353
 501,  167, 1170, 1004,  931
 502,  862,  116, 1060,  167
 503,  119, 1167,  846,  766
 504,  811,  766,  846,  680
 505, 2026,  796,  639,  640
 506,  639,  796, 2054,  641
 507,  640,  639,   94,  605
 508, 1681, 1509, 2048, 1712
 509, 1234,  238, 1320, 1362
 510, 1235, 1117, 1083,  966
 511, 1022,  930,  201, 1081
 512, 1081, 1107, 1168, 1252
 513,  629,  614,    2,  679
 514,  679,    2,  508,  681
 515,  680,    1,  509,  811
 516, 2019, 2026,  640,  283
 517,  283,   95,  606, 1509
 518, 2046, 1457,  261,  752
 519, 1083, 1185,  240, 1037
 520,  201,  930,  866,  947
 521,  201,  947,  993, 1107
 522,  103,  626,  683,  611
 523,  867,  769,  626,  628
 524,  627,  104,  613,  784
 525,   97,  261,  638,   96
 526,   97,  607,  752,  261
 527,  608,  761, 2037,   98
 528,  100,  717,  718,   99
 529,  717,  719,  771,  221
 530,  682, 1065,  776,  202
 531,  611,  683, 2043,  102
 532,  537,   23,  656,  662
 533,  157, 2171, 1208, 2030
 534, 1201,  126, 1198, 1187
 535, 1201,  127, 1256, 1264
 536, 1637, 1573, 1516, 1697
 537,  343,  961,  914, 1018
 538, 1181,  320,  948,  321
 539, 1758, 1865, 1826, 2326
 540, 1707, 1823, 1758,  163
 541,  122, 1732, 1694, 1585
 542, 1732,  122, 1786, 2272
 543, 2155, 1349, 2209, 1221
 544, 2265, 2223, 1636, 2264
 545,  121, 1472, 1120,  984
 546,  166, 1274, 1347, 1441
 547, 1434, 2216, 1459,  164
 548, 1063,  115, 2115, 1144
 549,  932,  763,  116,  862
 550,  984,  858,  131, 1017
 551,  969, 1023,  864,  129
 552, 1585, 1553,  121, 1051
 553, 1829, 2203, 1711, 1874
 554, 1674, 1638, 1573,  110
 555,  915,  925, 1017,  131
 556, 1188, 1070,  133, 2235
 557, 1032, 2093, 2098, 1095
 558, 1276, 1193, 1101, 1033
 559,  138,  845,  768,  621
 560,  139, 1032,  946,  845
 561,  793,  753,  851, 2045
 562,  145, 1089,  965, 1034
 563,  141, 1133, 1100, 1134
 564,    7,  514,  753,  793
 565, 1133,  145,  912,  146
 566,  840,  144,  754,    8
 567,  891,  913,  921,  147
 568,  743,  746,  526,   17
 569,  750,  751,  515,    9
 570,   17,  527,  745,  743
 571,  758,  150,  779,  153
 572,  637,  636,  517,   10
 573,  869,  795,  636,  764
 574,  836,  154,  757,  791
 575,  156,  928,  860, 1112
 576, 1382, 1413, 1443,  158
 577, 1127,  156, 1112, 1200
 578, 2221, 1344, 1399,  158
 579, 1490, 1559, 1423, 2221
 580, 1726,  175, 1655, 2328
 581, 1565, 1655, 1606, 2249
 582, 1999, 2006, 1721, 2274
 583, 2250, 1966, 1937, 1982
 584, 1876, 1907, 1789, 2317
 585, 2290, 1748, 2315, 1670
 586, 1675, 1389, 1441, 1494
 587, 1972, 2011, 1461, 1996
 588, 2065,  168,  762,  117
 589,  658,  843,  803,  660
 590, 1066,  940, 1002,  187
 591, 2245,  171, 1298,  170
 592, 1424, 1497, 2248,  172
 593, 1334, 2310, 2275, 1260
 594, 1443,  173, 1552, 1490
 595, 2351, 1568, 1626, 1552
 596,  193, 1803, 1848, 1888
 597, 1726, 1803,  193, 1769
 598,  176, 2274, 1751, 1859
 599, 1990, 1903, 1968, 1984
 600, 1962, 1902, 1942, 1984
 601, 1907, 1942,  178, 1789
 602, 1867,  179, 1788, 2354
 603, 1237,  182, 1170,  167
 604,  183, 2089, 1098, 1168
 605,  769, 1003,  683,  626
 606,  981,  999,  186,  781
 607, 1787, 1807, 1776,  210
 608, 1468, 1396, 1327, 1524
 609,  173, 2312, 1513, 2351
 610, 2392,  192, 1691, 1730
 611, 1975,  212, 1888, 1848
 612, 1814, 1836, 1988,  194
 613, 1967, 1991, 2373,  194
 614, 1895, 2411, 2412, 1935
 615, 1950, 1935, 1858,  196
 616,  216, 1808, 1737, 2344
 617, 1654, 1562, 1610,  198
 618,  217, 1654, 1773, 1901
 619, 1252, 1306,  200, 1081
 620, 1081,  200, 1318, 1022
 621,  947,  866,  202,  776
 622,  610, 1065,  682,  101
 623,  204,  861,  828,  878
 624, 1106, 1123, 1206,  205
 625, 2284, 1254, 1378,  225
 626, 1254, 1136, 1206, 1378
 627, 1326, 1414,  208, 1327
 628, 1768, 1805, 1714, 2391
 629,  208, 1527, 1524, 1327
 630, 1730, 1691,  191, 1875
 631, 1875,  210, 1883, 1881
 632, 2406, 1945,  231, 1993
 633,  211, 1978, 1957, 1975
 634, 1926, 1922,  214, 2003
 635, 1847, 2377, 2379, 2400
 636, 1895, 1935, 2404, 2400
 637, 1613, 1622, 1560,  218
 638, 1515, 2282, 1576, 1698
 639, 1440, 1330, 1486,  218
 640,  220,  930, 1022, 1268
 641,  866,  916,  771,  202
 642,  717,  100,  609,  719
 643,   31,  688,  697,  545
 644,  223, 1270, 1199, 1029
 645, 1529, 1581, 1818, 2325
 646, 2385, 1818, 1581,  247
 647, 1744, 1857, 1628, 1692
 648, 1866,  210, 1776, 1805
 649, 1919, 1885, 1951,  230
 650, 1953, 1916, 2360,  252
 651, 1896,  232, 1954, 2395
 652,  233, 1846, 2376, 1791
 653, 2350, 1841, 1815,  255
 654, 2348, 2377, 1778,  234
 655, 2374, 2346, 2345, 1723
 656,  258, 1263, 1310, 1243
 657,  236, 1408, 1321, 1364
 658,  237, 1395, 1417, 1482
 659, 1117, 2128, 1171,  239
 660,  966, 1083, 1037,  221
 661, 2021,  544,  545,  697
 662,  690,  546,  547,  693
 663,  221, 1037,  718,  717
 664,  890,  242,  886,  813
 665, 1011, 2162, 1039, 1086
 666, 1428, 1380,  267, 1481
 667, 1125, 1251, 1203, 2187
 668, 1905, 1426,  246, 1825
 669, 1640, 1575, 2286, 1685
 670, 1985, 1909,  272, 1959
 671, 2396, 1908, 2384,  248
 672,  229, 1862, 1885, 1919
 673, 2370, 1998, 2389, 1973
 674, 1868, 1956,  275, 1752
 675, 1953, 2388, 1963, 1916
 676,  276, 1800, 1752, 1708
 677,  276, 2263, 1603, 2294
 678, 1570, 1661, 1649,  277
 679, 2213, 1539, 2261, 1439
 680,  258, 1176, 1006, 2138
 681, 1175, 1115,  257, 1363
 682, 1362, 1320,  259, 1712
 683,  239, 1185, 1083, 1117
 684,  885,  829,  814, 2105
 685, 1229, 1105, 1172, 1280
 686,  309, 1279, 1383, 2178
 687,  817,  285, 2097,  831
 688,  546,  690,  688,   31
 689,   32,  695,  693,  547
 690, 1026,  265,  964, 2160
 691, 1116, 1177,  265, 1026
 692, 1533,  290, 1643, 1583
 693,  266, 1584, 1251, 1125
 694,  269, 1904, 1870, 2358
 695,  268, 1855, 1742, 2286
 696,  271, 1924, 1934, 1965
 697, 2324, 1960, 2001, 1977
 698, 1947, 1958,  250, 2402
 699, 1964, 1920,  274, 2342
 700, 1508, 1469, 1317, 1219
 701, 1801, 1756, 1854, 1920
 702, 1708, 1900, 1720, 1765
 703, 1708, 1765, 1713,  276
 704,  300, 1322, 1366, 2135
 705, 1322,  278, 2237, 1366
 706, 2213, 1439, 1291, 1557
 707,  303,  797,  874, 2071
 708,  955,  281,  857, 2069
 709, 1681, 2019,  283, 1509
 710,  638, 1509,  606,   96
 711, 1680, 1635,  308, 1491
 712, 1492, 2129,  285, 2085
 713, 1245,  288, 1178,  287
 714, 1273,  289, 1272, 1222
 715, 1683, 1643,  290, 1740
 716, 1949, 1833,  315, 1828
 717, 1949, 1828, 1906,  293
 718, 1986, 2000, 1835,  317
 719, 1920, 1964,  296, 1801
 720, 1747, 1701,  296, 1928
 721, 1469, 1861, 1393, 1317
 722, 1469, 1508, 1811, 1701
 723, 1182, 1242, 1118,  322
 724,  705,  303,  823,  712
 725,  856,  973, 1035, 1080
 726,  639,  641,   93,   94
 727,  326, 1798, 1839, 1880
 728, 2020, 2027,  304, 2024
 729,   36,  689, 2024,  554
 730,  553,  304,  691,   35
 731, 2122, 2121, 1994, 1845
 732, 2228,  310, 2270, 1367
 733, 1853,  311, 2306, 1799
 734, 1816, 1832, 1911, 2362
 735,  311, 1853, 1785, 1766
 736, 1614, 1659,  336, 1598
 737, 1704, 1749,  315, 1813
 738, 2225, 1510, 1952, 1917
 739, 1810, 1725, 1760, 1834
 740, 1777, 1650, 1747, 2251
 741, 1899, 1917, 1952, 2224
 742,  363, 1031,  974,  911
 743, 1317, 1393, 1329,  341
 744, 2074, 1118,  321, 1018
 745, 1693, 1746, 1798,  326
 746, 1892, 1842, 1940, 2236
 747,  327, 1851, 1910, 1944
 748, 1728, 1586, 1635, 1719
 749,  330, 1717, 1762, 1673
 750,  352, 1821, 1820, 1792
 751, 1673,  351, 1703, 1615
 752, 1604, 1639,  332, 1473
 753, 1532, 1616,  333, 1799
 754, 1837, 1771, 1816, 2362
 755, 1716,  333, 1672, 2364
 756, 1600, 2320, 1598, 1687
 757, 2341, 2333, 1474, 1589
 758, 1165, 1319,  361, 1239
 759, 1802, 1401,  359, 1387
 760, 1572, 1464,  319, 1650
 761, 1220,  340, 2149, 1510
 762,  911,  974,  879,  774
 763,  362,  974, 1031, 1084
 764,  772,  364, 2073,  877
 765,  819,  914,  961,  710
 766, 2010, 1839,  327, 1970
 767, 1762, 1782,  351, 1673
 768,  373, 1820, 1821, 1767
 769, 1165, 1084,  340, 1220
 770, 1165, 1239,  362, 1084
 771,  350, 1879, 2297, 1782
 772,  949, 1064, 1025,  383
 773,  854,  386,  824,  385
 774, 1082,  406, 1275, 2183
 775,  825,  897,  723,  725
 776,  939, 1016,  849, 2094
 777, 1212, 1357, 1352,  417
 778,  418, 1093, 1076, 2032
 779, 1052, 1238, 1286,  399
 780,  920,  400, 1038,  970
 781,  422,  893,  792,  740
 782,  704,  422,   82,  591
 783, 2057,  403,  715,  778
 784,  896, 1027, 1097,  401
 785, 1015, 1072,  406, 1082
 786, 1455, 1416,  426, 1348
 787, 1528, 1567, 1462,  427
 788, 1163, 1223, 1078, 1020
 789, 1124, 1289, 1204,  425
 790, 1646, 1597, 1498, 2327
 791, 1690, 1774, 1764, 1676
 792, 1738,  392, 1783,  412
 793, 1644, 1682, 1734, 1738
 794, 1549,  414, 1501, 1596
 795,  414, 1368, 1420, 1501
 796, 1601, 1545, 1633,  396
 797, 1729, 2169, 1283, 1430
 798, 1357, 1212,  418, 2032
 799, 1137, 1093,  418, 1212
 800,  439,  972,  983,  902
 801, 1141, 2151, 1227,  420
 802,  421,  920,  970,  978
 803,  905,  954,  424,  847
 804,  443, 1325, 1331,  444
 805,  462, 1574, 1502, 2198
 806, 1415, 1343, 1269, 1484
 807,  954,  905,  442, 1161
 808, 1325, 1158, 1214, 2220
 809, 1517, 1475, 2132,  488
 810, 1140, 1091, 1197, 1236
 811,  888,  507,  742,  780
 812,   59,  507,  737,  574
 813, 2102, 1191, 1204, 2144
 814, 2147, 1290, 2182, 1253
 815,  408, 2302, 1609, 1483
 816, 2279, 1587, 1664, 1620
 817, 1761, 2254, 1676, 1764
 818, 2206, 1316, 1679,  433
 819, 1284, 1370,  435, 2100
 820, 1207, 1154,  436, 1162
 821, 2124, 1092, 1162,  436
 822,  777,  889,  440,  755
 823,  777,  755,  741,  978
 824,   47,  654,  650,  563
 825,  441, 1047,  977,  904
 826, 1345,  443,  444, 1348
 827, 1325, 2220, 1400, 1331
 828,  476, 1500, 1520, 1454
 829,  488, 1094, 1186, 1451
 830, 1044,  927,  960, 1094
 831,  742,   60,  575,  732
 832, 1455, 1348,  444, 1523
 833, 2210, 1605,  446, 1512
 834,  447, 1390, 1466, 1530
 835,  448, 1358, 1377, 2259
 836, 1444, 1259, 1335, 2179
 837,  450, 1126, 1164, 1471
 838, 1008, 1054,  451, 1069
 839, 1061, 2059, 1209,  452
 840,  454,  917,  959, 1014
 841,  663,  790,  454, 2042
 842,  904,  952,  650,  441
 843,  458,  922,  924,  998
 844, 1558, 1114, 1184,  474
 845, 1558,  474, 1599, 2175
 846,  461, 1523,  444, 1331
 847, 1502,  477, 2141, 2198
 848,  490, 1421, 1299, 1360
 849,  500,  826,  898,  960
 850, 2180, 1465, 2142, 1267
 851, 1373, 2207, 1312, 2239
 852, 1151,  465, 1075, 2167
 853, 1007,  466, 1779,  942
 854,  880,  468,  882,  808
 855, 1009,  469,  669, 2041
 856, 1214, 1158, 1087,  459
 857, 2062,  944, 2092, 2117
 858, 2196, 1196, 1397,  486
 859, 1475, 1555, 1407,  487
 860, 1186, 1094,  489, 2112
 861, 1453,  957,  491, 1040
 862, 1500, 1231, 1361, 2176
 863, 1241, 1111, 1179, 1267
 864, 1021, 1088,  479,  941
 865, 2130,  480,  850, 2099
 866,  482,  873,  942, 1030
 867,  482,  670,  775,  873
 868,  653,   49,  566,  471
 869, 2218, 2177,  476, 1454
 870,  484,  785,  859,  938
 871, 1148, 1056, 2118,  987
 872,  498, 2158, 1183, 1108
 873,  976,  491,  900,  492
 874,  941,  492, 1085, 1021
 875,  807,  668,  494,  805
 876,  644,  567,   51,  643
 877,  619,  809,  805,  494
 878,  996,  982,  505, 1090
 879, 1090, 2079, 1108, 2080
 880,  888,  780, 2081,  499
 881,  780,  742,  732,  901
 882,  785,  484,  645,  684
 883,  759,  505,  982,  760
 884,  681,  508,    1,  680
 885,    3,  624,  811,  509
 886,  783,  510,    4,  623
 887,    6,  138,  621,  512
 888,  754,  753,  514,    8
 889,  636,  637,  151,  764
 890,  518,   11,  519, 2018
 891, 2013,  835,  791,  844
 892,   14,  154,  834,  522
 893,  153,  703,  524,   15
 894,  525,   16,  749,  758
 895,  967,  744,  528,   18
 896,  530,   19,  871,  648
 897,  532,   20,  906,  649
 898,  534,   21,  635,  633
 899,  631,  634,  536,   22
 900,  659,  661,   25,  540
 901,   27,  185,  666,  541
 902,   29,  203,  665,  542
 903,  667,  543,   30,  686
 904,  241,  813,  688,  690
 905,  690,  693,  829,  241
 906,  548,  696,  695,   32
 907,  262,  549,   33,  694
 908,   35,  691,  692,  552
 909,  304,  553,  554, 2024
 910,  556,  687,  815,  555
 911,  687,  556,   37,  701
 912,   42,  385,  824,  560
 913,  404,  561,   44, 2035
 914,   45,  423,  722,  562
 915,   48,  652,  655,  564
 916,  566,   50,  756,  471
 917,  568,  645,  643,   51
 918,   53,  618,  685,  569
 919,  570,   54, 2038,  617
 920,  572,  678,  677,  571
 921,   57,  738,  759,  573
 922,   62,  728,  730,  576
 923,  810,  578,   67,  668
 924,  494,  579,   68,  619
 925,  483,  581,   71,  673
 926,  669,  582,   73, 2041
 927,  663, 2042,   75,  584
 928,  664,  585,   76,  455
 929,  587,   80,  440,  735
 930,  422,  740,  590,   82
 931,  706,  711,   83,  592
 932,  593,   84,  715,  403
 933,  599,   89,  344,  819
 934,  602,  324,  820,  601
 935,  324,  602,   91, 1135
 936,  642,  705,   92,  604
 937,  605,   95,  283,  640
 938,  752,  607,   98, 2037
 939,   99,  718,  761,  608
 940,  101,  682,  719,  609
 941,  102, 2043, 1065,  610
 942,  628,  612,  104,  627
 943,  627,  762,  867,  628
 944,  784,  613,  614,  629
 945, 1147, 1058, 1002,  786
 946,  616,  455,   76,   77
 947,  685,  618,  765,  495
 948,  684,  685,  495,  785
 949,  620,  853,  800,  625
 950,  622,  139,  845,  138
 951,  969,  783,  623,  130
 952,  766,  129,  864,  119
 953,  130,  623,  625,  800
 954,  626,  103,  612,  628
 955,  117,  762,  627,  784
 956,  118,  763,  679,  681
 957,  784,  629,  932,  117
 958, 1055,  630,  788, 2051
 959,  137,  906,  630, 1055
 960,  634,  789,  787,  632
 961,  634,  632,  535,  536
 962,  633,  868,  788,  630
 963,  631,  105,  789,  634
 964,  516,  517,  636,  795
 965, 1509,  638, 2047, 2048
 966,  642,  641, 2054,  797
 967,  303,  705,  642,  797
 968, 2052,  827,  644,  643
 969,  756,  644,  827, 2053
 970,  684,   52,  569,  685
 971, 1005,  646,  799,  142
 972,  967,  646, 1005,  146
 973,  871,  798,  143,  648
 974,  798,  871,  647,  936
 975, 1281,  799,  143, 1392
 976,  654,   47,  564,  655
 977,  651,  812,  457,  652
 978,  652,   48,  565,  651
 979,  653,  838,  812,  651
 980,  441,  650,  654,  802
 981,  538,   24,  660,  657
 982,  843,  865, 1012,  803
 983,  155,  657,  660,  803
 984,  786,  659,  615, 1147
 985,  661,  169,  843,  658
 986,  105,  631,  662,  804
 987, 2058,  664,  455,  881
 988,  666,  185,  781,  186
 989,  943,  469, 1009, 1061
 990,  670,  482, 2049,  672
 991,  671,  808,  882,  673
 992, 1014,  674, 2042,  454
 993, 1113,  674, 1014,  453
 994,  503,  765,  618,  676
 995,  678,  572,   56,  760
 996,  958,  907,  503,  676
 997,  760,   56,  573,  759
 998, 1167, 2023,  118,  846
 999,  118,  681,  680,  846
1000,  719,  682,  202,  771
1001,  184, 2043,  683, 1003
1002,  222,  767,  686, 2021
1003,  325,  815,  687,  773
1004, 1880,  689, 1869,  326
1005,  691,  305,  816,  692
1006, 2122,  306, 2022, 2005
1007,  693,  695,  814,  829
1008,  696,  548,  549,  262
1009, 1438,  814,  695,  696
1010,  697,  886,  222, 2021
1011,  284,  887,  698, 2017
1012, 2028,  284, 2084, 2085
1013,  346, 1356,  345, 1304
1014,  720,   38,   39,  724
1015, 1119, 1143, 1246, 1139
1016,  523,  524,  703,  757
1017,  703,  153,  779,  844
1018,  402,  711,  706,  883
1019,  848,  704,  711,  402
1020,  383, 1025,  707,  716
1021,  323, 1244, 2016,  894
1022,  894,  822,  708,  323
1023,  364,  772,  714,  709
1024,  711,  704,  591,   83
1025,  712, 1135,   91,  603
1026,  597,  598,  713,  818
1027,  384, 2036,  911,  774
1028,  761,  718, 1037,  240
1029, 1119,  720,  724,  365
1030,  897,  825, 2094,  849
1031,  365,  724,  721, 2055
1032,  722,  423,  847,  424
1033,  825,  725,  824,  386
1034,  727,   61,  576,  730
1035,  730,  728,  501,  826
1036,  733,   66,  578,  810
1037,  780,  901,  927, 2081
1038, 1085,  493, 1045, 1021
1039,  736,  734,   78,   79
1040,  439,  736,  735,  972
1041,  507,  888,  953,  737
1042,  506,  830,  737,  953
1043, 1071,  738,  830,  506
1044,  741,  739,  421,  978
1045,  588,   81,  741,  755
1046,  527,  528,  744,  745
1047,  743,  745,  832,  148
1048,  749,  746,  833,  895
1049,   16,  526,  746,  749
1050, 2018,  747,  151,  637
1051,  150,  758,  749,  895
1052,    8,  515,  751,  840
1053, 2033,  240, 1185, 1435
1054,  841,  754,  144,  910
1055,  867,  762,  168, 2066
1056,  862, 2065,  117,  932
1057,  679,  763,  932,  629
1058,  764,  151,  835, 2013
1059,  152,  869,  764, 2013
1060,  624,  129,  766,  811
1061,  872,  222,  886,  242
1062,  858,  800,  853,  131
1063, 2066,  951,  769,  867
1064, 1003,  769,  951,  183
1065, 1563,  957,  884,  770
1066, 2073,  364,  852, 1096
1067, 2072, 2036,  772,  877
1068, 2087, 1588, 1625,  875
1069,  383,  716,  774,  879
1070,  882,  919,  483,  673
1071,  919,  882,  468,  979
1072, 1003,  183,  993,  184
1073,  420, 1227, 1301,  889
1074,  883, 2057,  950, 2031
1075,  150,  801,  908,  779
1076,  869,  152, 2076,  149
1077,  888,  499,  994,  953
1078,  861,  981,  781,  828
1079,  204,  878,  782,  975
1080,  842,  782,  203,  667
1081,  129,  624,  783,  969
1082, 1002,  940,  169,  786
1083,  991, 2077,  137, 1055
1084,  855,  789,  105,  918
1085, 2058, 2168, 2078,  790
1086,  792,  963,  920,  421
1087,  622,  793, 2045,  139
1088,  860,  794,  155,  909
1089,  794,  860,  928,  804
1090,  149,  750,  795,  869
1091, 2069,  857,  796, 2026
1092, 2070,  874,  797, 2054
1093,  798,  936, 1392,  143
1094,  647,  649, 2050,  936
1095, 1100, 1005,  142, 1134
1096,  149, 2076,  908,  801
1097,  802,  922,  990,  441
1098,  803, 1012,  909,  155
1099,  700, 2028,  817,  694
1100,  807,  805,  850,  933
1101, 1103, 2088, 1173,  437
1102, 2063, 2056, 1103,  437
1103, 2049,  482, 1030,  481
1104,  481, 2099,  809, 2049
1105,  810,  493, 1085,  733
1106,  457,  986,  924,  876
1107,  890,  813,  241,  892
1108,  264, 1172, 1105, 2201
1109,  829,  885,  892,  241
1110,  815,  325, 1869,  689
1111, 2017,  816, 2022, 2025
1112,  262,  694,  817,  831
1113,  364,  709,  818,  852
1114,  914,  819,  344,  962
1115,  323,  708,  820,  856
1116,  343,  870,  821,  961
1117,  821,  870, 1096,  852
1118,  822,  344,   89,  600
1119,  823,  303, 2071,  863
1120, 1135, 1121,  973,  324
1121,  854,  385,  726,  405
1122,  387, 1297,  849, 1016
1123,  884,  899,  501,  770
1124,  878,  828,  675,  665
1125,  204, 1029, 1106,  861
1126,  263, 1438,  831, 1372
1127,  148, 2060,  891,  833
1128,  834,  154,  836,  748
1129,  835,  748,  836,  791
1130,  837,  439,  902, 2086
1131,  839,  837, 2086,  438
1132,  838,  653, 2053, 2062
1133,  472,  812,  838, 2103
1134, 2068,  438, 2088, 1103
1135,  147,  840,  751,  926
1136,  840,  147,  921,  144
1137,  841,  910, 2067, 1149
1138,  975, 1028, 1405,  223
1139,  152, 2013,  844, 2076
1140, 1063, 1167,  119, 1024
1141,  847,  423,  952,  904
1142,  896,  848,  402,  956
1143,  401,  893,  848,  896
1144,  386,  854, 1015,  939
1145, 1216,  365, 2055, 1297
1146,  976,  492,  941, 1111
1147,  937, 2130, 2099,  481
1148,  933,  850,  480, 2131
1149, 1149,  934,  851,  841
1150, 2073, 1096, 2126,  342
1151,  131,  853,  768,  915
1152,  918,  105,  804,  928
1153,  800,  858,  929,  130
1154,  859,  935, 1109, 2090
1155,  938,  903, 2052,  484
1156,  205,  981,  861, 1106
1157,  863, 2071, 1042, 2108
1158,  863,  302, 1121,  823
1159,  865, 1001,  170, 1012
1160,  916,  866,  930,  220
1161,  997,  128,  787,  106
1162, 1309,  788,  868,  923
1163, 2126, 1096,  870, 1019
1164, 1011,  872,  242, 2162
1165,  945,  872, 1011,  243
1166,  281, 2107, 2070,  857
1167, 2107,  971,  874, 2070
1168, 1869, 1625, 1693,  326
1169,  876,  924,  922,  802
1170, 1311, 2125, 1160,  341
1171,  879,  362,  949,  383
1172,  880,  943, 1008, 1069
1173, 1069, 1036,  468,  880
1174, 1103, 2056,  806, 2068
1175,  489, 1360, 1299, 2112
1176,  892,  885, 2160,  964
1177, 1301,  983,  972,  889
1178,  913,  891, 2060, 2061
1179,  893,  401,  963,  792
1180, 2074,  968,  322, 1118
1181,  895,  833,  926,  150
1182, 1297, 2055,  897,  849
1183,  723,  897, 2055,  721
1184,  898,  489, 1094,  960
1185,  899,  898,  826,  501
1186,  899,  884,  490, 1360
1187,  491,  957, 1563,  900
1188,  502,  731,  900, 1563
1189,  927,  901,  500,  960
1190, 2086, 1043, 1093,  438
1191, 2117, 2092, 2120, 1077
1192,  827, 2052,  903,  944
1193, 1158, 1161,  442, 1087
1194, 1013,  907,  958, 2044
1195,  988,  907, 1013,  496
1196, 1034,  910,  144,  921
1197, 2036,  384,  714,  772
1198,  146, 1005, 1100, 1133
1199,  912,  145,  913, 2061
1200, 2061, 2060,  832,  912
1201,  948,  343, 1018,  321
1202,  925,  915,  946,  132
1203,  966,  916,  220, 1235
1204,  221,  771,  916,  966
1205,  959,  436, 1154, 1073
1206,  454,  790, 2078,  917
1207, 2030,  156, 1127,  157
1208,  919,  873,  775,  483
1209,  990,  922,  458, 1059
1210,  923,  997, 1102, 2111
1211,  986,  457,  812,  472
1212,  122, 2234, 1152, 1786
1213, 2127, 1208, 2171, 1278
1214, 1208,  855,  918, 2030
1215,  168, 2065,  931, 1004
1216,  493,  807,  933, 1045
1217, 2093, 2045,  851,  934
1218,  935,  495,  765,  988
1219, 1010,  937,  481, 1030
1220,  937, 1075, 1157, 2130
1221, 2090, 1109,  987, 2118
1222,  939, 1015, 1082, 1016
1223,  940, 1066, 1001,  865
1224, 1150,  470,  674, 1113
1225, 2103,  838, 2062, 2117
1226,  995,  945,  243, 1608
1227, 2096,  767,  945,  995
1228,  993,  947,  776,  184
1229,  992,  950,  382, 2164
1230,  883, 2031,  956,  402
1231, 1004, 2089, 2066,  168
1232,  953,  994,  989,  506
1233, 1079, 1020,  954, 1161
1234,  282, 1763, 2110, 1067
1235, 1067, 1250, 2138,  955
1236, 1122, 1027,  381, 2238
1237,  502, 1563,  770, 2040
1238, 2044,  677,  678,  504
1239, 1014,  959, 1073,  453
1240,  962,  344,  968, 2074
1241, 1000,  963,  401, 1097
1242,  964,  265, 2204,  985
1243,  965, 1089, 1033,  140
1244,  322,  968,  894, 2016
1245,  130,  929, 1023,  969
1246,  970, 1038, 1053, 2095
1247,  909, 1298, 1112,  860
1248,  971, 2107, 2137, 1041
1249, 2136, 1042,  971, 1041
1250,  302, 1035,  973, 1121
1251, 1311, 1328,  363, 2072
1252,  975,  223, 1029,  204
1253,  976,  478, 1040,  491
1254, 1131, 1129,  980,  120
1255, 1090,  505, 1071, 2079
1256,  419, 1043,  983, 1301
1257,  265, 1177, 1039, 2204
1258,  890,  985, 2162,  242
1259,  986, 1046,  998,  924
1260, 2090,  485,  938,  859
1261,  987, 1138,  497, 1148
1262,  496, 1109,  935,  988
1263, 2079, 1071,  506,  989
1264, 1059, 2140, 2104,  990
1265, 1187,  991, 1055, 2051
1266,  991, 1187, 1198,  136
1267, 1064, 1159, 2164,  382
1268,  993,  183, 1168, 1107
1269, 1091, 1140,  499, 2081
1270,  498,  989,  994, 2158
1271, 1028, 2096,  995, 1405
1272, 1608,  243, 2187, 1203
1273,  996,  497, 1138, 1057
1274,  504, 1057, 1013, 2044
1275, 1102,  997,  106, 2127
1276,  998,  473, 1114,  458
1277, 1132,  999, 1062, 2195
1278,  187, 1002, 1058, 2172
1279, 1144, 1060,  116, 2023
1280,  862,  167,  931, 2065
1281,  188, 1104, 1001, 1066
1282, 1004, 1170,  182, 1098
1283,  405, 1072, 1015,  854
1284,  281,  955, 2138, 1006
1285, 1050, 1007,  467, 2083
1286, 1779, 1010, 1030,  942
1287, 1054, 1008,  452, 1145
1288,  453, 2059, 1150, 1113
1289,  466, 2167, 1010, 1779
1290, 1016,  407, 1049,  387
1291, 1051, 1017,  925, 2234
1292,  914,  962, 2074, 1018
1293, 1068, 1019,  320, 1293
1294,  342, 2126, 1019, 1068
1295,  424,  954, 1020, 1078
1296, 1191, 1163,  425, 1204
1297, 1318,  219, 1268, 1022
1298, 1235,  220, 1268, 1266
1299,  120, 1023,  929, 1120
1300,  115, 1063, 1024, 1129
1301,  382,  778, 1025, 1064
1302, 2201, 1105, 1178, 1026
1303,  380, 1097, 1027, 1122
1304, 2096, 1028,  842,  767
1305, 1328, 1296, 1031,  363
1306, 1084, 1031, 1296,  340
1307, 1070, 1032, 1095,  133
1308,  132,  946, 1032, 1070
1309,  141, 1276, 1033, 1089
1310, 1034,  921,  913,  145
1311, 2109, 1074, 1557, 2012
1312,  301, 1080, 1035, 2012
1313, 1036, 1164, 1126, 1099
1314, 2037,  761,  240, 2033
1315, 2199, 1038,  400, 1110
1316, 1052, 1053, 1038, 2199
1317, 1130, 1086, 1039, 1177
1318, 1343, 1040,  478, 1269
1319, 2136, 1041, 1115, 2212
1320, 1074,  280, 1217,  279
1321, 2108, 1042, 2136,  280
1322, 1226, 2153, 1169, 1265
1323,  488, 2132, 1044, 1094
1324, 1044, 1091, 2081,  927
1325, 1088, 1021, 2131, 1166
1326, 1056, 2156, 1467, 2118
1327,  473,  998, 1046, 1189
1328, 1087, 1047, 2104,  459
1329,  977, 1047, 1087,  442
1330, 2168, 1048, 1195, 2124
1331, 1218, 1049, 1294, 1300
1332, 2083, 1099, 1126, 1202
1333, 1585, 1051, 2234,  122
1334, 1053, 1052,  399, 1141
1335, 2199, 1110, 2260, 1238
1336, 2095, 1053, 1141,  420
1337, 1662, 1611,  451, 1054
1338, 1189, 2120, 2119, 1397
1339,  496, 1013, 1057, 1138
1340,  186,  999, 1058, 1147
1341, 2172, 1058,  999, 1132
1342, 2115, 1271, 1060, 1144
1343,  453, 1128, 1209, 2059
1344, 1136, 1062,  205, 1206
1345, 2195, 1062, 1136,  206
1346, 1064, 1239,  361, 1159
1347,  184,  776, 1065, 2043
1348, 1156,  187, 2172, 1132
1349,  955, 2069,  282, 1067
1350, 1069,  451, 1164, 1036
1351, 1070, 1188, 1152,  132
1352, 1072, 2102, 1253,  406
1353, 1073,  435, 1128,  453
1354, 1291,  301, 2012, 1557
1355, 2109, 2012, 1035,  302
1356, 1157, 1075,  465, 2161
1357, 2153, 1226, 1076,  419
1358, 2103, 2117, 1077,  472
1359, 2035, 1078, 1223,  404
1360, 2185, 1079, 1161, 1158
1361, 1020, 1079,  425, 1163
1362, 1341, 2116, 1242, 1262
1363,  323,  856, 1080, 1244
1364, 1275,  406, 1253, 2182
1365, 1016, 1082, 2183,  407
1366, 1185,  239, 1303, 1435
1367, 1130, 1125, 2187, 1086
1368,  243, 1011, 1086, 2187
1369,  459, 1667, 2186, 1214
1370, 2161,  480, 2130, 1157
1371,  497,  996, 1090, 2080
1372, 1236, 1197,  487, 2181
1373, 1195, 1194, 1092, 2124
1374, 1092, 2169,  416, 1162
1375, 2073,  342, 2125,  877
1376, 1000, 1174, 1110,  400
1377, 2089,  183,  951, 2066
1378,  979, 1099, 2083,  467
1379, 1133,  141, 1089,  145
1380, 1193, 2170, 1287, 1101
1381,  140, 1033, 1101, 2133
1382, 1155, 1102, 2127, 1278
1383, 1142, 2111, 2146,  107
1384,  170, 1001, 1104, 2245
1385,  885, 2105,  264, 2160
1386,  287, 1178, 1105, 1229
1387, 1236, 1183, 2158, 1140
1388, 1179,  479, 1180,  464
1389,  478,  976, 1111, 1241
1390, 1184, 1114,  473, 1196
1391, 1266, 2128, 1117, 1235
1392, 1228, 1182,  322, 2016
1393, 1143, 1119,  365, 1216
1394, 1472,  113, 1404, 1131
1395, 1124,  425, 1079, 2185
1396, 1202, 1126,  450, 1259
1397, 1257, 1127, 1200, 1260
1398,  157, 1127, 1257, 1371
1399, 2123, 1128,  435, 1370
1400, 1129,  114, 1240,  115
1401,  266, 1125, 1130, 1272
1402,  114, 1129, 1131, 1404
1403, 1131,  120, 1120, 1472
1404, 1134,  142, 1205, 1282
1405, 1134, 1282, 1276,  141
1406, 2152, 1194, 1195, 1173
1407,  994,  499, 1140, 2158
1408, 1141,  399, 1247, 2151
1409, 1256, 1142,  107, 1302
1410,  127, 1309, 1142, 1256
1411, 1146, 1216, 1297,  387
1412,  366, 1246, 1143, 1314
1413, 1144, 2023, 1167, 1063
1414,  434, 1210, 1145, 1261
1415, 2080, 1248, 1148,  497
1416, 1149, 2067, 2098,  934
1417, 1061, 1009, 1150, 2059
1418, 1150, 1009, 2041,  470
1419,  466, 1213, 1151, 2167
1420, 1358,  465, 1151, 1288
1421,  300, 1228, 1153, 1215
1422,  435, 1073, 1154, 2100
1423, 1399, 1344,  107, 2146
1424, 2195, 1258, 1156, 1132
1425, 1249, 1156, 1258, 2273
1426,  480, 2161, 1166, 2131
1427, 2185, 1158, 1325,  443
1428, 1159,  361, 1211,  360
1429,  342, 1068, 1160, 2125
1430, 1223,  405,  726,  404
1431, 1471, 1164,  451, 1611
1432, 1088, 1255, 1180,  479
1433, 1168, 1098,  182, 1252
1434, 1169,  398, 2189, 1265
1435, 1169, 2153, 1227, 2151
1436, 1271, 1237,  167, 1060
1437, 1172,  264, 2105,  263
1438, 2088, 1137, 2152, 1173
1439, 1122, 1230,  359, 1305
1440, 1174,  379, 2260, 1110
1441,  256, 1495, 1409, 2257
1442, 1006, 1176, 1041, 2137
1443, 1176,  258, 1243,  257
1444, 1177, 1222, 1272, 1130
1445, 1267, 1179,  464, 2180
1446, 2134, 1388, 1225, 1181
1447, 2135, 1182, 1228,  300
1448, 1262, 1242, 1182, 2135
1449, 1248, 1183, 1236,  486
1450, 1231, 1436, 1186, 2112
1451, 1451, 1186, 1436, 1452
1452, 1230,  360, 1387,  359
1453,  127, 1201, 1187, 2051
1454, 2235, 1221, 2209,  123
1455, 1732, 2272, 1873, 1882
1456, 1189, 1397, 1196,  473
1457, 1190,  133, 1095, 2133
1458, 1072,  405, 1191, 2102
1459, 1249, 1460,  188, 1066
1460,  171, 1334, 1260, 1200
1461, 1221, 2235, 1287, 2170
1462, 1283, 1194, 2152,  417
1463, 1194, 1283, 2169, 1092
1464, 2132, 1197, 1091, 1044
1465, 2181, 1338, 1196, 2196
1466, 1198,  126, 2145, 1425
1467, 1270,  223, 1405, 1340
1468,  224, 1123, 1199, 1507
1469, 1050, 2083, 1202, 2014
1470,  244, 1340, 1608, 1203
1471, 1253, 2102, 2144, 2147
1472, 1282,  135, 1522, 2154
1473, 1284, 2100, 1315,  415
1474, 1207, 1315, 2100, 1154
1475,  157, 1371, 1382, 2171
1476, 1261, 1209, 1128, 2123
1477, 1210,  434, 1316, 2206
1478, 1662,  433, 2191, 1611
1479, 1137, 1212,  417, 2152
1480, 1595, 1357, 2032,  397
1481, 1138,  987, 1109,  496
1482, 1050, 1213,  466, 1007
1483, 1288,  449, 1377, 1358
1484, 2220, 1214, 2186,  460
1485, 2211, 1322,  300, 1215
1486, 2212, 1217,  280, 2136
1487,  279, 2213, 1557, 1074
1488, 1571, 1508, 1219, 1293
1489,  341, 1160, 1219, 1317
1490, 1319, 1165, 1220, 2225
1491, 1188, 2235,  123, 1786
1492,  133, 1190, 1287, 2235
1493, 1273, 1222, 2269, 2323
1494, 1122, 1305, 1224,  380
1495, 1333, 1224, 1305, 1332
1496,  298, 1678, 1225, 1388
1497,  320, 1181, 1225, 1293
1498, 1301, 1227, 2153,  419
1499, 2016, 1244, 1153, 1228
1500,  286, 1279, 1229, 1280
1501,  476, 1436, 1231, 1500
1502, 1231, 2112, 1299, 1361
1503, 1460, 1326, 1232,  188
1504, 1326, 1327,  189, 1232
1505, 1104, 1192, 1233, 2245
1506, 1171, 1234, 1303,  239
1507,  166, 2034, 1237, 1271
1508, 1286, 1238,  378, 1339
1509, 1239, 1064,  949,  362
1510, 1271, 2115, 1274,  166
1511, 2114, 1269,  478, 1241
1512, 1118, 1242, 2116,  321
1513,  115, 1240, 1274, 2115
1514, 1367, 1245, 1323, 2228
1515,  345, 1139, 1246, 1304
1516,  399, 1286, 1313, 1247
1517, 1460, 1249, 2273,  207
1518, 1337, 1417, 2173, 1266
1519, 1308,  266, 1272,  289
1520, 1529, 2325, 2284,  225
1521,  465, 1358, 1312, 2229
1522, 1180, 1255, 2207,  464
1523, 1264, 1256, 1302,  108
1524, 1371, 1257,  172, 2248
1525,  206, 1307, 1258, 2195
1526, 2014,  449, 1213, 1050
1527, 1257, 1260, 2275,  172
1528, 1233, 1334,  171, 2245
1529, 1284, 1368, 1359, 1370
1530, 2135, 1366, 1398, 1262
1531,  299, 1341, 1262, 1398
1532, 1417, 1395, 1365, 2165
1533, 1310, 1263, 1395,  237
1534,  126, 1201, 1264, 1376
1535, 1226, 1265, 1733,  397
1536, 2189,  398, 1292,  377
1537,  219, 1337, 1266, 1268
1538, 1266, 2173,  238, 2128
1539, 1391, 1465, 2180, 1373
1540, 1269, 2114,  463, 1484
1541,  244, 1493, 2214, 1506
1542,  245, 1507, 1506, 2214
1543, 2323, 1766,  289, 1273
1544, 2194, 1347, 1274, 1240
1545, 2182, 1350, 2208, 1275
1546, 2183, 1275, 2208,  407
1547, 1193, 1276,  134, 2155
1548, 1333, 1402,  379, 1224
1549,  287, 1229, 1279, 1323
1550, 1375, 1281, 1392,  136
1551, 1276, 1282, 2154,  134
1552,  416, 2169, 1729, 1633
1553, 1368, 1284,  415, 1420
1554,  486, 1236, 2181, 2196
1555,  165, 1347, 2194, 1434
1556, 1522, 1569,  134, 2154
1557, 1358,  448, 2239, 1312
1558, 1289, 1345, 1348,  426
1559, 1204, 1289,  426, 2144
1560, 2268, 2233,  427, 1462
1561, 2211, 1439, 2261, 1322
1562, 1593, 2189,  377, 1542
1563, 1369,  407, 2208, 2258
1564, 1294,  408, 1483, 1300
1565, 1354, 1295,  366, 1419
1566,  367, 1351, 1295, 1354
1567, 1360,  489,  898,  899
1568, 1361, 1299, 1421,  477
1569, 1435, 1303,  260, 2064
1570, 1356,  346, 2075,  773
1571, 1653, 1702,  181, 2271
1572, 1306, 1702, 1432,  200
1573, 1775, 2307, 1631, 1307
1574, 1258, 1307, 1631, 2273
1575, 1308,  289, 1705, 2281
1576, 1584, 1533,  267, 1251
1577,  788, 1309,  127, 2051
1578, 1328, 1311,  341, 1329
1579, 2239, 1390, 1391, 1373
1580, 1314,  388, 1419,  366
1581, 1545, 1496,  415, 1315
1582, 1411, 1679, 1316, 1359
1583, 1329, 1393, 1464, 2148
1584, 1330, 1318,  200, 1432
1585, 1917, 1899, 1891,  339
1586, 1211,  361, 1319, 1342
1587, 1320, 1365, 1336,  259
1588, 1408, 2257, 1363, 1321
1589,  309, 2228, 1323, 1279
1590, 2270, 1381, 1324, 1367
1591,  207, 1414, 1326, 1460
1592, 1296, 1328, 1329, 2148
1593,  219, 1318, 1330, 1440
1594, 1331, 1400, 1448,  461
1595, 1589, 1537,  358, 2341
1596, 1333, 1332, 2341,  358
1597, 1402, 1333,  358, 1478
1598, 2310, 1233, 1192,  189
1599, 1396, 1379, 2275, 2310
1600,  432, 1619, 1335, 1403
1601, 1427, 1444, 2179,  431
1602,  238, 2173, 1417, 2165
1603, 1337,  219, 1440, 1482
1604,  487, 1407, 1338, 2181
1605, 1385, 1554,  378, 1277
1606,  244, 1506, 1270, 1340
1607, 1388, 1341,  299, 2190
1608, 2134, 2116, 1341, 1388
1609,  339, 1384, 1342, 1917
1610, 1423, 1374, 1344, 2221
1611,  443, 1345, 1124, 2185
1612, 1459, 1346, 2232, 1561
1613,  166, 1441, 1389, 2034
1614, 1350, 1458, 2258, 2208
1615, 1430, 1352, 2243, 2244
1616, 1353,  181, 1702, 1306
1617, 1353,  182, 1237, 2034
1618,  388, 1300, 1355, 1419
1619, 1544, 2243, 1357, 1595
1620, 1411,  414, 1549, 1623
1621, 2176, 1361,  477, 1502
1622, 1362,  260, 1303, 1234
1623, 2257, 1446, 2298,  256
1624, 1363, 2257, 1409, 1175
1625, 1364, 1310,  237, 1577
1626, 1560, 1577,  237, 1482
1627, 1263, 1336, 1365, 1395
1628, 1398, 1366, 2237, 1456
1629, 1442,  310, 2228,  309
1630, 2258, 1458, 1536, 2277
1631,  408, 1294, 1369, 2277
1632, 1370,  434, 1261, 2123
1633, 2106, 2097, 1422, 1491
1634,  286, 1280, 1372, 2106
1635, 2207, 1373, 2180,  464
1636, 1410, 1374, 1423,  159
1637,  108, 1302, 1374, 1410
1638, 1394, 1375,  136, 1386
1639, 1437,  109, 1479, 1376
1640, 1377,  449, 1427, 2227
1641, 2227, 1645, 2259, 1377
1642,  225, 1476, 1426, 1529
1643, 1424, 1379,  190, 1843
1644,  172, 2275, 1379, 1424
1645,  244, 1203, 1380, 1493
1646, 1406, 2306, 2270,  310
1647, 1381,  311, 1766, 2323
1648, 1382,  158, 1278, 2171
1649, 2178, 2174, 1412, 1477
1650,  360, 1211, 1384, 1387
1651, 2295, 1648, 1431, 1554
1652, 1394, 1386, 1425, 1521
1653,  299, 1445, 1713, 2190
1654, 2268, 1458, 1350, 2233
1655, 1389,  181, 1353, 2034
1656,  448, 1466, 1390, 2239
1657, 1391, 1390,  447, 2210
1658,  319, 1464, 1393, 1861
1659,  135, 1375, 1394, 1463
1660,  486, 1397, 2156, 1056
1661, 1398, 1456, 1445,  299
1662,  158, 1399, 1155, 1278
1663, 2218, 1400, 2220,  460
1664, 1454, 1448, 1400, 2218
1665,  338, 1677, 1474, 2333
1666,  379, 1402, 1277, 2260
1667, 1346, 1404,  113, 2232
1668, 1406,  310, 1473, 1532
1669, 1799, 2306, 1406, 1532
1670, 1475,  487, 1197, 2132
1671, 1408,  236, 1449, 2283
1672, 2283, 1449, 2321,  235
1673, 2246, 1409, 1495,  279
1674, 1679, 1411, 1623,  413
1675, 1534, 1412, 1586,  330
1676,  173, 1443, 1413, 2312
1677, 2309, 1579, 2308, 1470
1678, 1511, 2176, 1502, 1574
1679, 1416,  427, 1290, 2147
1680, 1418,  409, 1498,  389
1681, 1420,  415, 1496, 1550
1682, 1421,  490, 1453, 2113
1683, 1429,  286, 2106, 1491
1684, 1443, 1490, 2221,  158
1685, 1514, 1497, 1424, 1843
1686, 2145,  126, 1376, 1479
1687,  125, 1591, 1521, 1425
1688, 1426, 1476, 1504,  246
1689, 1444, 1427,  449, 2014
1690, 1480,  431, 1676, 2254
1691, 1505, 1428, 2285,  268
1692, 2174, 1429, 1491,  308
1693, 1489, 2244, 2243, 1544
1694,  396, 1633, 1729, 2244
1695, 1431, 1648, 1487,  377
1696, 1562, 1486,  199, 1610
1697, 1538, 1433, 1485, 2205
1698, 1538, 1588, 2087, 1433
1699, 1434,  164, 1461,  165
1700, 2047, 2064,  260, 2048
1701, 2046, 2033, 1435, 2064
1702, 1452, 1436,  476, 2177
1703,  109, 1638,  125, 1479
1704, 1438,  263, 2105,  814
1705, 2097,  285, 2129, 1422
1706, 1482, 1440,  218, 1560
1707, 1442,  309, 2178, 1477
1708, 1442, 1604, 1473,  310
1709, 2179, 1450, 2215,  431
1710,  235, 1525, 1446, 2283
1711,  367, 1354, 1447, 1535
1712, 1523,  461, 1541, 1621
1713, 1449, 1515, 1698, 2321
1714, 1619,  432, 2247, 2240
1715, 1517, 2193, 1555, 1475
1716, 2177, 1519,  475, 1452
1717, 1451, 1452,  475, 2193
1718,  461, 1448, 1454, 1520
1719, 1519, 2177, 2218,  460
1720,  278, 1540, 1570, 2237
1721, 1445, 1456,  277, 2263
1722,  638,  261, 1457, 2047
1723, 2302, 1536, 1618, 1609
1724, 1462, 1567, 1651,  428
1725, 2268, 1462,  428, 1458
1726, 2149, 1572, 1952, 1510
1727, 2149, 2148, 1464, 1572
1728, 1518,  463, 2143, 1531
1729, 2143, 2142, 1465, 1512
1730, 2278, 1587,  429, 1530
1731, 2092, 2091, 2119, 2120
1732, 2118, 1467,  485, 2090
1733,  209, 2366, 1468, 1524
1734, 2336, 1527,  208, 1470
1735, 1470,  208, 1414, 2309
1736, 1499, 1471, 1611, 2191
1737, 1472,  121, 1553,  113
1738,  337, 1537, 1589, 1474
1739, 1332, 1401, 2333, 2341
1740, 1517,  488, 1451, 2193
1741, 1507, 1504, 1476,  224
1742, 2352, 1551, 2320,  357
1743,  357, 1385, 1478, 2352
1744, 1675, 2271,  181, 1389
1745, 1480,  430, 1645, 2227
1746, 1481, 1772, 2285, 1428
1747, 1481, 1583, 2287, 1772
1748,  408, 2277, 1536, 2302
1749, 1418, 1483, 1609,  409
1750, 1415, 1484,  462, 2198
1751,  255, 2303, 1566, 1634
1752, 1488,  255, 1540,  278
1753, 2244, 1489, 1871,  396
1754, 1490, 1552, 1626, 1559
1755, 1680, 2129, 1492, 2166
1756, 1719, 1635, 2166,  307
1757, 2214, 1493, 1505, 1575
1758,  165, 1461, 2011, 1494
1759, 1675, 1494,  180, 2271
1760, 1539, 1495, 1566, 2303
1761, 2246,  279, 1217, 2212
1762, 1501, 1420, 1550,  394
1763, 1514, 1513, 2312, 1497
1764,  390, 1548, 1597, 1671
1765, 1699,  433, 1679,  413
1766,  432, 1403, 1499, 2217
1767, 1511, 1520, 1500, 2176
1768, 1511, 1541,  461, 1520
1769, 1516, 1503, 1547,  160
1770,  109, 1437, 1503, 1516
1771, 2141, 2113, 1343, 1415
1772, 1575, 1640,  245, 2214
1773, 1575, 1505,  268, 2286
1774, 1801, 1811,  297, 1756
1775, 1701,  319, 1861, 1469
1776,  260, 1362, 1712, 2048
1777, 2242,  447, 1530,  429
1778, 1602, 1531,  446, 1567
1779, 1629, 1513, 1691,  192
1780,  174, 1568, 1629, 2382
1781, 1514,  191, 1691, 1513
1782,  445, 1602, 1567, 1528
1783, 1602,  445, 2015, 1669
1784, 1580, 2197, 2186, 1667
1785, 1556,  124, 1569, 1522
1786, 1455, 1523,  445, 1528
1787, 2298, 1642, 1634,  256
1788, 1525, 1582, 2298, 1446
1789, 1414,  207, 1579, 2309
1790, 1745, 1526,  226, 1838
1791, 1627, 1527, 1578,  228
1792,  209, 1524, 1527, 1627
1793, 1688, 1618,  428, 1651
1794, 1531, 2143, 1512,  446
1795,  308, 1586, 1412, 2174
1796, 1615, 1534,  330, 1673
1797, 1447,  389, 1548, 1535
1798, 1564, 1538, 2205,  368
1799, 1588, 1538, 1564,  347
1800, 2261, 1539, 2303, 1488
1801,  279, 1495, 1539, 2213
1802,  277, 1649, 1603, 2263
1803, 1511, 1574, 1621, 1541
1804, 1696, 1733, 1593,  376
1805, 2017, 2025, 2084,  284
1806, 1543,  307, 2166, 1492
1807, 1545, 1315,  416, 1633
1808,  433, 1699, 1546, 2191
1809, 1644, 1590, 2217, 1546
1810, 1623, 1549, 1596, 2300
1811, 1551, 1614, 1598, 2320
1812, 1568, 2351, 1513, 1629
1813, 1385,  357, 2295, 1554
1814,  357, 2320, 1600, 2295
1815, 1663, 1519, 2197, 1580
1816,  474, 1407, 1555, 1599
1817, 1556, 1521, 1591, 2202
1818, 1349, 1569,  124, 1829
1819, 2175, 1580, 1667, 2140
1820, 2175, 2140, 1059, 1558
1821, 1559, 1626, 1565, 2249
1822,  159, 1423, 1559, 2249
1823, 1707, 2289, 2265, 2264
1824,  164, 1459, 1561, 1670
1825,  218, 1486, 1562, 1613
1826, 1565,  174, 2328, 1655
1827, 1651, 1567,  446, 1605
1828, 1626, 1568,  174, 1565
1829, 1569, 1349, 2155,  134
1830, 1570,  277, 1456, 2237
1831, 1508, 1571,  297, 1811
1832, 2224, 1952, 1572,  318
1833,  109, 1516, 1573, 1638
1834, 1685, 2286, 1742, 1825
1835, 2344, 1641, 1698, 1576
1836, 1622, 2256, 1577, 1560
1837, 1364, 1577, 2256,  236
1838, 1578, 2375, 1628, 1857
1839, 1631, 1579,  207, 2273
1840, 1470, 2308, 2334, 2336
1841,  460, 2186, 2197, 1519
1842, 2175, 1599, 1663, 1580
1843, 2321, 1698, 1641, 2345
1844, 1533, 1584, 2281,  290
1845, 1585, 1694, 1636, 1553
1846, 1625, 1588,  347, 1693
1847,  432, 2217, 1590, 2247
1848, 1590,  412, 1724, 2247
1849, 1487,  356, 1824, 1592
1850, 1265, 2189, 1593, 1733
1851,  375, 1660, 1594, 2316
1852,  393, 2300, 1596, 1624
1853,  410, 1671, 1597, 1646
1854, 1600, 1687, 1617, 2301
1855, 1599, 1555, 2219, 1663
1856, 1600, 2301, 1648, 2295
1857, 1632, 1601,  396, 1871
1858, 1531, 1602, 1669, 1518
1859, 1722, 1603, 1649,  254
1860, 1603, 1722, 1735, 2294
1861, 1604,  331, 2296, 1639
1862, 1688, 1651, 1605, 2242
1863, 1647, 1606, 1655,  175
1864,  160, 1547, 1606, 1647
1865, 1684, 1652, 1718, 2276
1866, 1607,  368, 2205, 1485
1867, 1609, 1618, 1620, 2327
1868, 1702, 1653,  199, 1432
1869, 1773, 1654,  198, 1817
1870,  394, 1550, 1612, 1668
1871, 1613,  217, 2282, 1622
1872, 1704,  337, 1474, 1677
1873, 1616,  332, 1658, 1715
1874, 1771, 1617,  335, 1816
1875,  356, 2301, 1617, 1771
1876, 2279, 1620, 1618, 1688
1877, 2240, 2215, 1450, 1619
1878, 1335, 1619, 1450, 2179
1879, 1669, 2015, 1621, 1574
1880, 1523, 1621, 2015,  445
1881,  413, 2305, 1682, 1699
1882, 1627, 2391, 1714,  209
1883, 1692, 1628, 2375,  227
1884, 1695, 1630,  369, 2150
1885, 2284, 1775, 1307, 1254
1886, 1601, 1632, 1665,  395
1887, 1642, 2298, 1582,  234
1888,  255, 1634, 1642, 2350
1889, 1728, 2231, 1927, 1717
1890, 1697, 1516,  160, 2006
1891, 1979, 2226, 1982, 2252
1892, 1639, 2296, 1657, 2322
1893, 1641, 2344, 1737, 2378
1894, 1642,  234, 1778, 2350
1895, 1705, 1740,  290, 2281
1896, 1643,  291, 2287, 1583
1897, 1699, 1682, 1644, 1546
1898,  412, 1590, 1644, 1738
1899, 1645,  430, 1664, 1587
1900, 1761,  410, 1646, 1727
1901, 1721, 1647,  175, 2291
1902,  356, 1487, 1648, 2301
1903, 1661, 1570, 1540, 2311
1904,  318, 1572, 1650, 1777
1905, 1650,  319, 1701, 1747
1906, 1652, 1607,  390, 1718
1907, 1689, 1653, 2271,  180
1908, 1656, 1686, 2316, 1544
1909, 1686, 1656, 1696,  376
1910,  352, 1792, 1657, 1703
1911, 1657, 2296, 1615, 1703
1912, 1658,  332, 1639, 2322
1913,  354, 1672, 1715, 2339
1914, 1794, 1813,  314, 1830
1915, 1877, 1660, 1750, 2338
1916,  374, 1594, 1660, 1877
1917, 1649, 1661, 2349,  254
1918, 1662, 1210, 2206,  433
1919,  475, 1519, 1663, 2219
1920, 1709, 1665,  373, 1767
1921,  298, 2190, 1713, 1765
1922, 2140, 1667,  459, 2104
1923, 1759, 1668,  372, 1796
1924, 2315, 1748, 1710, 1996
1925, 1755, 1827, 2276, 1718
1926, 2313,  355, 2292, 2332
1927, 1728, 1717,  330, 1586
1928, 1821,  351, 1822, 1767
1929, 2223, 1561, 2232,  113
1930,  110, 2253, 1884, 1711
1931, 1674, 2230, 2202, 1591
1932, 1676,  431, 2215, 1690
1933, 2254, 1727,  430, 1480
1934, 1677, 1725, 1749, 1704
1935, 1678, 1720,  297, 1571
1936, 2129, 1680, 1491, 1422
1937, 1763, 1681, 1712,  259
1938, 2019, 1681, 1763,  282
1939, 1682, 2305, 1700, 1734
1940, 1850,  391, 1844, 1887
1941,  375, 2316, 1686, 2335
1942, 1794,  336, 1659, 1813
1943,  335, 1617, 1687, 1819
1944, 1689,  180, 2266, 1864
1945,  198, 1610, 1689, 1864
1946, 1875,  191, 1787,  210
1947,  227, 1745, 2386, 1692
1948, 1694,  112, 2264, 1636
1949, 2150,  369, 2188, 1741
1950, 1746, 1795, 2101,  348
1951, 2006,  160, 1647, 1721
1952, 1697,  161, 2250, 1637
1953, 1700, 2305, 2300,  393
1954, 1659,  337, 1704, 1813
1955, 1785, 1705,  289, 1766
1956, 1706,  375, 2335, 1831
1957,  112, 1823, 1707, 2264
1958, 2289, 1707,  163, 2317
1959, 1900, 1756,  297, 1720
1960, 1874, 1711, 1884, 1933
1961, 1658, 2338, 2339, 1715
1962, 2363, 1754, 1799,  333
1963, 1886, 1780, 1762, 1717
1964, 1731, 1719,  307, 2159
1965, 1927,  329, 1886, 1717
1966, 1999, 2299, 2288,  161
1967, 1736, 1722,  254, 2376
1968,  253, 1735, 1722, 1736
1969, 2378, 1739, 2347, 1723
1970, 2255,  411, 1774, 1690
1971, 1760,  338, 1802,  339
1972,  316, 1749, 1725, 1810
1973, 1726, 2328, 2382, 1803
1974, 1620, 1727, 1646, 2327
1975, 1731, 2200, 1927, 2231
1976, 2157, 2159, 1790,  306
1977, 2262, 1738, 1734, 1700
1978, 1941,  216, 2337, 1863
1979, 1737,  215, 1739, 2378
1980,  412, 1783, 1757, 1724
1981, 2377, 1847,  233, 1841
1982, 2348, 2347, 1739, 2379
1983, 1683, 1740,  312, 1948
1984, 1741, 2004, 2101, 2150
1985, 1741, 2188, 1793, 1849
1986, 1772, 1855,  268, 2285
1987, 1825, 1742,  269, 2358
1988, 1831, 1743, 2313, 1753
1989, 2365, 1794, 1830, 1819
1990,  249, 1806, 1857, 1744
1991, 1745,  227, 2334, 1526
1992, 1818, 1838,  226, 2325
1993,  347, 1564, 1695, 1795
1994, 1748, 2290, 1789,  178
1995, 1749,  316, 1828,  315
1996, 1859, 1751, 1814,  194
1997, 1868, 1752, 1800, 2330
1998, 1752,  275, 1900, 1708
1999, 1831, 1753,  354, 1706
2000, 1799, 1754, 2368, 1853
2001, 2363,  333, 1716, 1781
2002, 1764, 1774, 1755, 1671
2003, 1724, 1757,  411, 2255
2004, 1865, 1758, 1823,  111
2005,  372, 1822, 2297, 1796
2006, 1624, 1759, 1878,  393
2007, 1834, 1760,  339, 1891
2008, 2322,  353, 2338, 1658
2009, 1782, 1762, 1780,  350
2010, 2110, 1763,  259, 1336
2011, 1755, 1774,  411, 1827
2012,  192, 1803, 2382, 1629
2013,  372, 1709, 1767, 1822
2014, 1806, 2408, 2401, 1857
2015, 1768,  229, 1866, 1805
2016, 1814, 1769,  193, 1836
2017, 1726, 1769, 2291,  175
2018, 1772, 2287, 2357, 1804
2019, 1912, 1863, 1817, 2293
2020, 1775, 2284, 2325,  226
2021, 2307, 1775,  226, 1526
2022, 2390, 1776, 1807, 2366
2023, 1809, 2267, 1960, 1986
2024, 1778, 2377, 1841, 2350
2025, 1842, 1780, 1886,  329
2026, 2292, 1824, 1837, 2329
2027,  334, 2363, 1781, 2329
2028, 1796, 2297, 1879,  371
2029, 1782, 2297, 1822,  351
2030,  392, 1840, 1844, 1783
2031,  391, 2276, 1827, 2318
2032, 2353, 1785, 1853, 2368
2033,  191, 1514, 1843, 1787
2034, 1867, 2354, 1902, 2369
2035, 1543, 1790, 2159,  307
2036,  306, 2122, 1845, 2157
2037, 1791, 2349, 2311, 1815
2038, 1846,  233, 1922, 1921
2039, 1792, 1820, 1797,  353
2040, 1841,  233, 1791, 1815
2041, 1946, 1923,  370, 1889
2042, 2101, 1795, 1695, 2150
2043, 1759, 1796,  371, 1878
2044, 1797, 1770,  374, 1877
2045,  327, 1839, 1798, 1851
2046, 2340, 2304, 1852, 1915
2047, 1811, 1801,  296, 1701
2048, 1401, 1802,  338, 2333
2049, 1803,  192, 2392, 2403
2050, 1856,  291, 1897, 1890
2051, 1904,  269, 1943, 1961
2052, 1807,  190, 1468, 2366
2053, 2383, 1941,  197, 1898
2054, 2383, 2410, 2409, 1808
2055, 1835, 1810, 1834,  317
2056, 2398, 1812, 2385,  247
2057, 2386, 1812, 2396,  248
2058, 1813,  315, 1833,  314
2059, 1816,  335, 2381, 1832
2060, 2329, 1837, 2362,  334
2061,  197, 1941, 1863, 1912
2062, 1838, 1818, 2385, 1812
2063, 2381, 1830,  313, 2380
2064, 1821,  352, 1703,  351
2065,  112, 1882,  111, 1823
2066,  355, 1592, 1824, 2292
2067, 1876, 2326,  162, 2355
2068, 2380, 1911, 1832, 2381
2069, 1872, 1835, 2000,  294
2070,  316, 1810, 1835, 1872
2071, 1967,  194, 1988, 2399
2072, 2020, 1880, 1839, 2010
2073,  370, 1793, 1887, 2222
2074, 2262, 1840,  392, 1738
2075,  350, 1780, 1842, 1892
2076, 1842,  329, 1894,  328
2077, 1844,  391, 2318, 1783
2078, 1731, 2159, 2157, 2200
2079,  232, 1896, 1938, 1921
2080, 1736, 2376, 1846, 2394
2081, 1739,  215, 2411, 1895
2082, 1975, 1848, 1881,  211
2083, 1995, 2004, 2192,  349
2084,  369, 1684, 1850, 2188
2085,  391, 1850, 1684, 2276
2086, 2330,  252, 2360, 1868
2087,  334, 2029, 1754, 2363
2088,  275, 1854, 1756, 1900
2089, 1920, 1854, 2331,  274
2090,  269, 1742, 1855, 1943
2091, 1855, 1772, 1804, 1943
2092, 1890,  313, 1830,  314
2093, 1890,  314, 1918, 1856
2094,  228, 1578, 1857, 2401
2095, 2009, 1991,  214, 1935
2096, 1860,  317, 1899, 2224
2097,  318, 1809, 1860, 2224
2098,  250, 1885, 1862, 2402
2099, 2344, 1576, 1901,  216
2100, 1773, 1817, 1863, 2337
2101, 1912, 2293, 1930, 1931
2102, 2252, 1865,  111, 1979
2103, 1914, 1826, 1865, 2252
2104, 1866,  229, 1919, 1932
2105, 1866, 1932, 1883,  210
2106, 2396, 1812, 2398, 2397
2107, 2384, 1908,  272, 1909
2108,  196, 1858, 1929, 2369
2109, 1931, 1929,  197, 1912
2110, 1868, 2360, 1916, 1956
2111, 1871, 1489, 1594,  374
2112, 1965, 1989,  294, 1997
2113, 1874, 1873,  123, 2209
2114, 1873, 1874, 1933, 1882
2115, 1907, 1876, 2355,  177
2116, 1913, 1946,  371, 1879
2117, 1880, 2020, 2024,  689
2118, 2403, 1881, 1848, 1803
2119, 1979, 1933, 1884, 2253
2120, 2384, 1909,  249, 1744
2121, 1885, 1973, 2389, 1951
2122, 1973, 1885,  250, 2372
2123, 1936, 1888,  212, 2407
2124, 1889,  370, 2222, 1784
2125,  314, 1833,  292, 1918
2126,  177, 2355, 1893, 2002
2127, 1937, 1893,  162, 1914
2128, 2200, 1894,  329, 1927
2129, 2404, 1935,  214, 1922
2130, 1938,  253, 1736, 2394
2131,  231, 2395, 1954, 2007
2132, 1898,  197, 1929, 1858
2133, 1901, 1576, 2282,  217
2134, 1950,  196, 1962,  195
2135, 1867, 2369, 1929, 1931
2136, 1939, 1968, 1903, 2373
2137,  176, 1859, 1903, 1990
2138, 2387, 1961, 1943,  292
2139, 1992, 1904, 1961, 2387
2140, 1942, 1907,  177, 1984
2141, 1908,  271, 1955,  272
2142, 2029, 1925, 2356, 1754
2143, 2362, 1911, 2029,  334
2144,  179, 1867, 1931, 1930
2145, 1826, 1914,  162, 2326
2146, 1933, 1979,  111, 1882
2147, 1945, 1915, 2395,  231
2148, 2367, 2340, 1915, 1945
2149, 1916, 1963, 2331, 1956
2150, 1932, 1919,  230, 1978
2151, 1928,  296, 1964, 2314
2152, 1926, 1980, 1921, 1922
2153, 1922,  233, 1847, 2404
2154, 2003,  214, 1991, 1967
2155, 2236, 2192, 1849, 1923
2156, 1934, 1924,  270, 1870
2157, 1924,  271, 2397, 2398
2158, 1948,  313, 1897, 1683
2159, 1925, 1948,  312, 2356
2160,  292, 1833, 1949, 2387
2161, 1928, 2280, 2251, 1747
2162, 1989, 1965, 1934, 1992
2163, 1974, 1980,  213, 1976
2164, 2399, 1988, 2393,  213
2165, 1921, 1938, 2394, 1846
2166, 1991, 2009, 1939, 2373
2167,  195, 1968, 1939, 1950
2168,  328, 2184, 1940, 1842
2169, 2236, 1940,  349, 2192
2170, 1808,  216, 1941, 2383
2171, 1968,  195, 1962, 1984
2172,  178, 1942, 1902, 2354
2173, 1860, 1809, 1986,  317
2174, 1947, 1909, 1985, 1958
2175, 1944, 2139, 1970,  327
2176, 2405,  251, 2388, 2406
2177, 1971, 2367, 1945, 2406
2178,  270, 1924,  247, 1905
2179,  212, 1975, 1957, 1987
2180,  293, 1992, 2387, 1949
2181, 1902, 1962,  196, 2369
2182, 1950, 1939, 2009, 1935
2183, 1980, 1974,  232, 1921
2184, 1955,  271, 1965, 1997
2185, 1956, 2331, 1854,  275
2186, 1987, 1957, 1978, 2413
2187,  273, 2343, 2371, 2372
2188, 1998, 2361,  251, 2389
2189, 2001,  295, 2008, 1959
2190, 2319, 1985, 1959, 2008
2191,  295, 2001, 1960, 2267
2192, 1983, 2342, 1998, 2370
2193,  274, 2331, 1963, 2361
2194, 1981, 2314, 1983, 2343
2195,  176, 1990, 2002, 2299
2196, 1893, 1937, 1966, 2288
2197, 1940, 2184, 1969,  349
2198, 1910, 1995,  349, 1969
2199, 2082, 2010, 1970, 2121
2200, 2405, 2406, 1993, 2413
2201,  164, 2315, 1996, 1461
2202,  179, 1930, 1972, 1710
2203, 2372,  250, 1958,  273
2204, 2007, 1954, 1976, 2407
2205, 2407, 1976, 2393, 1936
2206,  212, 1987, 2007, 2407
2207, 1982, 2226, 1637, 2250
2208,  213, 1980, 1926, 2399
2209, 1981, 2319, 2008, 2280
2210, 2343, 1983, 2370, 2371
2211, 2361, 1998, 2342,  274
2212,  273, 1958, 1985, 2319
2213,  231, 2007, 1987, 1993
2214, 1988, 1836, 1936, 2393
2215, 1989, 1992,  293, 1906
2216, 2139, 1994, 2121, 1970
2217, 1997,  294, 2000, 2324
2218, 2000, 1986, 1960, 2324
2219, 2280, 2008,  295, 2251
2220, 2002, 1893, 2288, 2299
2221, 1741, 1849, 2192, 2004
2222,  305, 2005, 2022,  816
2223, 2082, 2005,  305, 2027
2224, 2319, 1981, 2343,  273
2225, 2027,  305,  691,  304
2226, 2027, 2020, 2010, 2082
2227, 1494, 2011, 2266,  180
2228,  112, 1694, 1732, 1882
2229, 2026, 2019,  282, 2069
2230, 2025, 2022,  306, 1790
2231, 2023,  116,  763,  118
2232,  381,  956, 2031, 2163
2233, 2032, 1076, 1226,  397
2234, 2033, 2046,  752, 2037
2235,  363,  911, 2036, 2072
2236, 2038,   54,   55, 2039
2237, 2039,   55,  571,  677
2238, 2064, 2047, 1457, 2046
2239, 2062, 2053,  827,  944
2240,  881,  455, 2056, 2063
2241, 2068,  806,  839,  438
2242, 2075,  346, 2087,  875
2243, 2076,  844,  779,  908
2244, 2050,  137, 2077,  936
2245, 2168, 2058,  881, 1048
2246, 2085, 2084, 1543, 1492
2247,  944,  903, 2091, 2092
2248, 2091,  485, 1467, 2119
2249, 2093, 1032,  139, 2045
2250, 2094,  825,  386,  939
2251, 1372,  831, 2097, 2106
2252, 2098,  140, 2133, 1095
2253, 2137, 2107,  281, 1006
2254,  302,  863, 2108, 2109
2255, 2146, 2111, 1102, 1155
2256,  477, 1421, 2113, 2141
2257, 2114, 1241, 1267, 2142
2258, 1181,  321, 2116, 2134
2259, 2119, 1467, 2156, 1397
2260, 2082, 2121, 2122, 2005
2261, 2184, 2139, 1944, 1969
2262, 1994, 2139, 2184,  328
2263,  463, 2114, 2142, 2143
2264, 2147, 2144,  426, 1416
2265,  340, 1296, 2148, 2149
2266, 2170, 1193, 2155, 1221
2267, 2160,  264, 2201, 1026
2268, 2161,  465, 2229, 1166
2269, 2163,  992, 2241, 2238
2270, 1365, 1320,  238, 2165
2271, 2168, 2124,  917, 2078
2272, 1383, 1429, 2174, 2178
2273, 1350, 2182, 1290, 2233
2274, 2193,  475, 2219, 1555
2275, 1434, 2194, 1285, 2216
2276,  124, 1556, 2202, 2203
2277, 2203, 2202, 2230, 1711
2278, 1605, 2210,  447, 2242
2279, 2211, 1215, 1291, 1439
2280, 2222, 1840, 2262, 1784
2281, 1669, 1574,  462, 1518
2282, 2226, 1979, 2253,  110
2283, 2231, 1728, 1719, 1731
2284, 2234,  925,  132, 1152
2285, 1690, 2215, 2240, 2255
2286, 2241, 1159,  360, 1230
2287, 2250,  161, 2288, 1966
2288, 2251,  295, 2267, 1777
2289, 1446, 2257, 1408, 2283
2290, 2259, 2278, 1466,  448
2291, 1864, 2266, 1930, 2293
2292, 2269, 1116,  288, 1324
2293, 2272, 1786,  123, 1873
2294, 2274,  176, 2299, 1999
2295, 1751, 2274, 1721, 2291
2296, 1981, 2280, 1928, 2314
2297, 1504,  245, 1640,  246
2298, 2357, 2287,  291, 1856
2299, 1670, 2265, 2289, 2290
2300, 2290, 2289, 2317, 1789
2301, 1781, 2332, 2292, 2329
2302, 2304, 2294, 1735, 1852
2303, 1735,  253, 2359, 1852
2304, 2305,  413, 1623, 2300
2305, 2306,  311, 1381, 2270
2306, 1579, 1631, 2307, 2308
2307, 2308, 2307, 1526, 2334
2308, 2311, 1540,  255, 1815
2309, 2314, 1964, 2342, 1983
2310,  163, 2326, 1876, 2317
2311, 2327, 1498,  409, 1609
2312, 2330, 1800, 2304, 2340
2313, 2364, 2332, 1781, 1716
2314, 2313, 2332, 2364, 1753
2315, 1743, 1831, 2335, 1686
2316,  252, 2330, 2340, 2367
2317,  235, 2321, 2345, 2346
2318,  234, 1582, 2347, 2348
2319, 1551, 2352,  358, 1537
2320,  312, 1740, 2353, 2356
2321, 2368, 1754, 2356, 2353
2322, 2359, 1896, 2395, 1915
2323,  252, 2367, 1971, 1953
2324, 2361, 1963, 2388,  251
2325, 2390, 2366,  209, 1714
2326, 2371, 2370, 1973, 2372
2327, 1525,  235, 2346, 2374
2328, 1641, 2378, 1723, 2345
2329, 2400, 2379, 1739, 1895
2330, 2380,  313, 1948, 1925
2331, 2381,  335, 1819, 1830
2332, 2388, 1953, 1971, 2406
2333, 1951, 2389,  251, 2405
2334, 2391, 1627,  228, 2401
2335, 1881, 2403, 1730, 1875
2336, 2396, 2397,  271, 1908
2337, 1768, 2391, 2401, 2408
2338, 2402, 1862, 2408, 1806
2339, 2405, 2413,  230, 1951
2340, 1978,  211, 1883, 1932
2341, 2412, 2410, 1858, 1935
2342, 2410, 2383, 1898, 1858
2343, 2412, 2411,  215, 2409
*Nset, nset=Set-1, generate
    1,  2413,     1
*Elset, elset=Set-1, generate
    1,  2343,     1
*Nset, nset=Set-2, generate
    1,  2413,     1
*Elset, elset=Set-2, generate
    1,  2343,     1
** Section: Section-1
*Shell Section, elset=Set-2, material=membrane
0.027385694341397336, 5
*End Instance
**  
*Nset, nset=Set-1, instance=membrane-1
   8,   9,  10,  11,  12,  13,  14,  15,  16, 515, 516, 517, 518, 519, 520, 521
 522, 523, 524, 525
*Elset, elset=Set-1, instance=membrane-1
  124,  125,  126,  128,  129,  130,  131,  132,  569,  572,  890,  892,  893,  894,  964, 1016
 1052,
*Nset, nset=Set-2, instance=membrane-1
   8,   9,  10,  11,  12,  13,  14,  15,  16, 515, 516, 517, 518, 519, 520, 521
 522, 523, 524, 525
*Elset, elset=Set-2, instance=membrane-1
  124,  125,  126,  128,  129,  130,  131,  132,  569,  572,  890,  892,  893,  894,  964, 1016
 1052,
*End Assembly
** 
** MATERIALS
** 
*Material, name=membrane
*Density
 1.23e-09,
*Elastic
 1144.64, 0.261954
** 
** BOUNDARY CONDITIONS
** 
** Name: BC-2 Type: Symmetry/Antisymmetry/Encastre
*Boundary
Set-2, ENCASTRE
** ----------------------------------------------------------------
** 
** STEP: Step-1
** 
*Step, name=Step-1, nlgeom=NO, perturbation
*Frequency, eigensolver=Lanczos, sim, acoustic coupling=on, normalization=mass
10, , , , , 
** 
** BOUNDARY CONDITIONS
** 
** Name: BC-1 Type: Symmetry/Antisymmetry/Encastre
*Boundary
Set-1, ENCASTRE
** 
** OUTPUT REQUESTS
** 
*Restart, write, frequency=0
** 
** FIELD OUTPUT: F-Output-1
** 
*Output, field, variable=PRESELECT
*End Step
